NAME: cvrp_uniform_n50_medium_train_006-k8
TYPE: CVRP
DIMENSION: 50
EDGE_WEIGHT_TYPE: EUC_2D
CAPACITY: 39
NODE_COORD_SECTION
1 807 5745
2 6637 4479
3 3900 344
4 5502 4356
5 7638 407
6 932 8631
7 1346 4512
8 5820 8848
9 6488 6723
10 2927 5692
11 4540 7047
12 1560 5082
13 9474 9128
14 8408 7332
15 7752 431
16 870 6227
17 4533 3093
18 7564 6717
19 5066 3175
20 5591 8878
21 8011 1301
22 2876 252
23 5766 9514
24 4965 5203
25 4805 2917
26 8065 48
27 5229 9868
28 2086 1913
29 6818 1731
30 139 9845
31 4518 1096
32 2239 1839
33 5707 5229
34 8075 1303
35 2881 470
36 9979 3179
37 115 6812
38 4871 7224
39 7481 2425
40 3701 8623
41 5571 4280
42 6820 7750
43 7727 8210
44 1541 8179
45 5743 6927
46 1249 7421
47 4180 896
48 5640 3976
49 7783 8773
50 6282 8556
DEMAND_SECTION
1 0
2 7
3 10
4 1
5 3
6 9
7 8
8 6
9 8
10 3
11 7
12 1
13 1
14 7
15 9
16 2
17 5
18 1
19 6
20 1
21 9
22 1
23 2
24 9
25 9
26 3
27 4
28 10
29 2
30 9
31 5
32 4
33 4
34 4
35 2
36 3
37 3
38 3
39 6
40 3
41 6
42 4
43 1
44 4
45 1
46 1
47 1
48 10
49 3
50 10
DEPOT_SECTION
1
-1
EOF
