NAME: cvrp_uniform_n50_medium_train_013-k8
TYPE: CVRP
DIMENSION: 50
EDGE_WEIGHT_TYPE: EUC_2D
CAPACITY: 43
NODE_COORD_SECTION
1 1112 4544
2 8480 1668
3 3265 208
4 278 489
5 2784 1628
6 5224 1117
7 5497 9244
8 9694 2709
9 7458 4625
10 4545 645
11 5226 6678
12 762 2417
13 5911 7422
14 6292 5722
15 5694 3015
16 8192 5517
17 7335 2159
18 3744 7811
19 7414 2879
20 8340 9104
21 3229 3567
22 5263 7618
23 1683 643
24 3616 1960
25 1533 1293
26 9765 2671
27 1492 1078
28 5663 4211
29 3501 9694
30 1014 8608
31 9078 9612
32 2977 7574
33 207 8820
34 1705 8501
35 8136 7061
36 9066 8707
37 5037 2201
38 81 8726
39 4288 5088
40 5501 1710
41 6664 1691
42 5984 2615
43 1337 3351
44 8543 102
45 157 4831
46 5733 8338
47 2024 5077
48 8985 9053
49 7000 7167
50 4991 8073
DEMAND_SECTION
1 0
2 8
3 10
4 6
5 1
6 8
7 4
8 2
9 5
10 8
11 3
12 2
13 5
14 1
15 5
16 10
17 8
18 5
19 5
20 5
21 1
22 6
23 6
24 10
25 1
26 7
27 1
28 5
29 10
30 1
31 3
32 6
33 4
34 7
35 1
36 8
37 1
38 5
39 4
40 2
41 10
42 9
43 7
44 2
45 5
46 9
47 9
48 9
49 4
50 4
DEPOT_SECTION
1
-1
EOF
