NAME: cvrp_uniform_n50_medium_train_007-k8
TYPE: CVRP
DIMENSION: 50
EDGE_WEIGHT_TYPE: EUC_2D
CAPACITY: 50
NODE_COORD_SECTION
1 1255 981
2 727 6329
3 9205 791
4 5710 6542
5 9908 3673
6 4091 6925
7 2618 6270
8 2981 8586
9 1656 9339
10 76 1455
11 18 4434
12 5138 848
13 4089 8968
14 9547 4408
15 43 5787
16 5822 4275
17 8868 5846
18 4575 9091
19 5825 6394
20 6113 7929
21 8858 3401
22 4741 7872
23 1649 3341
24 151 658
25 5317 3336
26 2377 1807
27 9523 755
28 4319 1900
29 9293 9344
30 5205 2469
31 4053 4801
32 6867 9107
33 8025 5174
34 7258 343
35 6771 5460
36 3596 6560
37 6380 2048
38 4368 947
39 3215 620
40 3187 5528
41 5224 9322
42 516 5304
43 1944 6656
44 7367 4853
45 7398 5246
46 7552 2613
47 8465 4716
48 9613 3021
49 9691 7611
50 317 3758
DEMAND_SECTION
1 0
2 1
3 5
4 7
5 7
6 8
7 6
8 9
9 9
10 10
11 3
12 5
13 7
14 8
15 5
16 10
17 4
18 7
19 9
20 3
21 2
22 7
23 10
24 5
25 8
26 4
27 1
28 3
29 6
30 6
31 4
32 3
33 1
34 7
35 2
36 6
37 3
38 9
39 9
40 7
41 10
42 2
43 6
44 9
45 10
46 4
47 7
48 4
49 9
50 9
DEPOT_SECTION
1
-1
EOF
