NAME: cvrp_uniform_n50_medium_train_004-k8
TYPE: CVRP
DIMENSION: 50
EDGE_WEIGHT_TYPE: EUC_2D
CAPACITY: 43
NODE_COORD_SECTION
1 8572 3298
2 7187 9849
3 91 5346
4 7267 2202
5 3606 9934
6 4545 9801
7 623 4233
8 1508 3864
9 5247 6097
10 1427 5809
11 3250 5271
12 3524 1920
13 447 4788
14 8316 5534
15 3975 260
16 1163 1229
17 189 2692
18 2448 2221
19 6939 2366
20 3552 4312
21 9388 1052
22 6480 601
23 1832 5875
24 7756 34
25 8319 538
26 4073 8312
27 1825 7401
28 8920 7869
29 5509 1995
30 3962 2056
31 581 6352
32 6901 9200
33 167 7185
34 2804 6852
35 2872 940
36 8543 163
37 1142 9232
38 3905 7779
39 2619 8921
40 6333 7348
41 7129 1339
42 7863 4257
43 3657 5947
44 7095 3567
45 8210 4627
46 5316 6152
47 8733 500
48 8454 8462
49 6519 4765
50 5921 1326
DEMAND_SECTION
1 0
2 3
3 5
4 3
5 2
6 10
7 9
8 3
9 7
10 3
11 2
12 8
13 7
14 2
15 4
16 9
17 6
18 3
19 1
20 4
21 6
22 7
23 1
24 2
25 5
26 1
27 8
28 8
29 8
30 6
31 3
32 6
33 10
34 4
35 8
36 4
37 2
38 4
39 6
40 5
41 9
42 9
43 7
44 8
45 6
46 5
47 9
48 5
49 3
50 1
DEPOT_SECTION
1
-1
EOF
