NAME: tsp_n50_uniform_smoke_001
TYPE: TSP
DIMENSION: 50
EDGE_WEIGHT_TYPE: EUC_2D
NODE_COORD_SECTION
1 1486 5057
2 5256 5408
3 9841 5865
4 2134 9922
5 7349 1683
6 8291 4233
7 2905 3248
8 9072 8645
9 757 9664
10 8718 4819
11 3384 8695
12 3004 2354
13 5680 6452
14 2009 6162
15 3986 7369
16 9665 4058
17 1089 2815
18 5436 9380
19 2748 3447
20 3008 5402
21 6481 4415
22 6589 5579
23 7821 5906
24 1474 3788
25 1811 9206
26 4660 3664
27 2792 402
28 9345 9608
29 3058 6949
30 9522 1397
31 5489 6566
32 5058 6196
33 276 579
34 1430 9636
35 4411 6028
36 3760 8346
37 9624 4077
38 9767 8562
39 3539 1263
40 4098 6001
41 4526 3898
42 3828 6000
43 8338 3925
44 6043 5282
45 7967 9208
46 6991 7748
47 2357 6916
48 7780 4073
49 3889 9033
50 9825 5265
EOF
