NAME: tsp_n50_uniform_smoke_000
TYPE: TSP
DIMENSION: 50
EDGE_WEIGHT_TYPE: EUC_2D
NODE_COORD_SECTION
1 61 1306
2 1506 4776
3 3505 9760
4 4599 5156
5 1789 6360
6 6835 6758
7 6339 7128
8 6048 8010
9 8397 4742
10 9400 2574
11 610 2668
12 428 2267
13 6531 3707
14 738 1459
15 1658 1950
16 1098 6009
17 4156 8564
18 5917 8466
19 954 2117
20 4506 2700
21 6501 8282
22 6366 1815
23 5637 9629
24 7549 9596
25 6671 1404
26 1695 3323
27 9906 8739
28 1201 2903
29 4398 6468
30 1885 3230
31 5583 5847
32 6364 7373
33 3259 8510
34 7598 131
35 2520 8738
36 8207 8613
37 6257 1056
38 724 5321
39 1874 1216
40 4546 9938
41 6968 7368
42 6903 7699
43 4934 9266
44 3416 1525
45 9050 4009
46 5745 9481
47 7984 3476
48 9198 4386
49 1229 5694
50 4432 2456
EOF
