NAME: tsp_uniform_n50_b_smoke_001
TYPE: TSP
DIMENSION: 50
EDGE_WEIGHT_TYPE: EUC_2D
NODE_COORD_SECTION
1 2614 2371
2 9547 3286
3 9574 9838
4 1267 4500
5 6749 6685
6 3442 8584
7 5245 752
8 7224 2756
9 4584 4917
10 4934 5048
11 4361 1815
12 4363 8494
13 6206 9518
14 8735 4264
15 5560 2865
16 1597 3895
17 2309 721
18 6354 3281
19 2922 4356
20 781 9795
21 9072 4318
22 9156 9556
23 4127 9650
24 3178 2567
25 871 3022
26 4563 8048
27 3648 1732
28 1330 9686
29 1338 498
30 2069 7255
31 9855 9377
32 2506 1030
33 2633 6748
34 4962 9084
35 2785 759
36 5449 7790
37 2986 880
38 1341 9393
39 2841 5989
40 9247 6149
41 2055 3583
42 2722 3915
43 7861 2414
44 3074 9053
45 9679 263
46 1479 9689
47 65 1560
48 5214 2373
49 7377 4717
50 1749 5205
EOF
