NAME: tsp_uniform_n50_b_smoke_000
TYPE: TSP
DIMENSION: 50
EDGE_WEIGHT_TYPE: EUC_2D
NODE_COORD_SECTION
1 5718 9475
2 2118 2579
3 8309 6808
4 6985 4137
5 6593 7652
6 9657 3920
7 6692 3298
8 6438 1234
9 1666 4148
10 397 4931
11 3660 9810
12 795 2893
13 610 4727
14 7933 8338
15 9825 3647
16 2088 7523
17 5524 8657
18 3319 8199
19 6204 8001
20 8558 6788
21 8585 5006
22 4268 437
23 2020 3678
24 9850 8524
25 8946 1640
26 9800 2766
27 8728 8343
28 8221 5406
29 7037 5952
30 3950 6631
31 5742 4522
32 4068 2321
33 8500 5690
34 8532 1405
35 1612 2086
36 3069 8880
37 927 2559
38 3319 6730
39 9206 7167
40 1984 8889
41 1477 7871
42 7239 7596
43 9105 7572
44 4019 7773
45 7657 500
46 318 2207
47 2984 5330
48 2412 6983
49 6544 2357
50 3395 3320
EOF
