NAME: tsp_n100_uniform_train_004
TYPE: TSP
DIMENSION: 100
EDGE_WEIGHT_TYPE: EUC_2D
NODE_COORD_SECTION
1 4755 6710
2 9329 4418
3 1296 3633
4 4893 1457
5 8597 9014
6 8798 574
7 7045 7900
8 3530 9471
9 1636 6526
10 6971 6910
11 3362 749
12 4230 9028
13 6050 2981
14 523 3558
15 5222 9202
16 661 7128
17 2165 406
18 1560 7148
19 1233 3153
20 9348 2936
21 3394 1466
22 1991 8875
23 2902 1507
24 395 4799
25 1234 2873
26 6522 708
27 121 50
28 2996 2636
29 2763 5949
30 5863 181
31 1997 2568
32 5595 3255
33 806 5305
34 2607 5484
35 9957 4774
36 2792 9187
37 5642 7854
38 5930 7574
39 8020 576
40 8029 2803
41 6308 3068
42 8941 6176
43 4559 2292
44 3595 3067
45 2669 7151
46 827 1967
47 9552 8873
48 9857 3331
49 598 984
50 8799 2650
51 3482 9062
52 443 6761
53 5845 6906
54 7286 8130
55 9658 9458
56 135 4420
57 4400 6288
58 3333 1885
59 1995 3178
60 6220 4079
61 572 5663
62 4204 5632
63 318 6613
64 2175 3822
65 3 1698
66 6884 1446
67 9713 8267
68 8798 9871
69 5277 2789
70 7163 7298
71 454 813
72 181 419
73 2725 6207
74 1177 5531
75 3637 373
76 7919 1173
77 4407 9086
78 9131 1488
79 2574 9601
80 2840 2255
81 7647 4448
82 2264 3081
83 4708 7448
84 9679 1030
85 339 3265
86 192 5611
87 5751 8656
88 9680 2261
89 1940 3770
90 9716 4569
91 4087 6374
92 956 2068
93 6180 8308
94 402 7552
95 9499 299
96 8222 8534
97 4674 9080
98 7128 9971
99 1278 2750
100 6113 9349
EOF
