NAME: tsp_n100_uniform_train_000
TYPE: TSP
DIMENSION: 100
EDGE_WEIGHT_TYPE: EUC_2D
NODE_COORD_SECTION
1 4412 4467
2 1930 7114
3 7302 3417
4 7661 4237
5 4044 8723
6 9052 5064
7 501 601
8 9645 3665
9 1260 3103
10 6426 4359
11 28 8499
12 1887 8268
13 7208 9001
14 1036 4709
15 454 1025
16 7858 7093
17 2857 1068
18 296 4499
19 352 6453
20 3545 3037
21 3180 5428
22 5655 9277
23 3638 8222
24 3043 3601
25 552 9125
26 4538 3539
27 6024 704
28 6228 8219
29 8866 87
30 145 6263
31 3664 4497
32 856 5082
33 1335 5791
34 4617 7297
35 5489 5603
36 1939 4462
37 3859 9980
38 8068 939
39 7126 3874
40 9054 625
41 4600 9834
42 577 388
43 9487 3810
44 6889 3900
45 485 345
46 7934 3812
47 1217 3924
48 2519 9154
49 4075 8468
50 322 3413
51 7716 5605
52 9312 168
53 4062 4931
54 9989 9611
55 6391 5351
56 540 7064
57 2732 898
58 3006 5769
59 6484 2681
60 6139 6985
61 6424 5256
62 3064 7150
63 265 4748
64 4131 9661
65 847 5741
66 4282 8054
67 1637 716
68 5263 7005
69 7967 5954
70 5483 5724
71 7553 8401
72 8692 7780
73 9155 307
74 245 8521
75 6303 7256
76 5000 9602
77 8320 9622
78 9931 7996
79 7466 1729
80 2345 7787
81 6104 9029
82 1038 4177
83 976 9788
84 5677 8046
85 7323 6039
86 2717 7115
87 9604 2099
88 8480 4990
89 7420 4324
90 1244 3482
91 6372 2048
92 8215 9548
93 5735 3473
94 6908 9334
95 5491 3021
96 2319 3409
97 753 1177
98 5308 8226
99 6482 5939
100 1270 5073
EOF
