NAME: tsp_n100_uniform_train_012
TYPE: TSP
DIMENSION: 100
EDGE_WEIGHT_TYPE: EUC_2D
NODE_COORD_SECTION
1 2306 4622
2 8837 6189
3 4949 9305
4 9787 3276
5 881 2881
6 1211 4141
7 4470 1841
8 4001 9011
9 3344 6526
10 7038 38
11 8502 2082
12 5560 2532
13 2511 4220
14 4746 5726
15 8975 1157
16 8986 1734
17 2898 9023
18 3027 7532
19 8835 161
20 3008 562
21 7239 2974
22 8089 7019
23 8095 8557
24 9108 4642
25 917 4958
26 7068 3958
27 9284 5914
28 9226 4679
29 8768 9625
30 9014 168
31 2259 9074
32 757 3983
33 9636 5010
34 2597 7250
35 1623 6617
36 7821 4228
37 7067 233
38 8594 2247
39 8706 6772
40 2687 3015
41 3094 1139
42 3981 4382
43 8633 8709
44 3899 4950
45 8165 2853
46 5475 5051
47 2333 1089
48 5190 2788
49 4682 6271
50 4424 3114
51 8246 7841
52 6843 2479
53 670 159
54 986 1594
55 5125 8130
56 9078 5564
57 6946 4196
58 7745 1288
59 5466 4734
60 9583 5046
61 7092 3599
62 9210 3308
63 2827 2534
64 3331 5032
65 5963 9298
66 9884 1852
67 5708 1426
68 7420 3556
69 2794 2802
70 9134 6378
71 4039 9102
72 1489 3692
73 7850 1458
74 2866 7668
75 8721 7237
76 675 3862
77 846 5449
78 9798 4554
79 6509 4787
80 4841 448
81 4217 1673
82 8362 2712
83 1864 1551
84 1948 6160
85 4275 976
86 3971 1477
87 7099 9515
88 5217 6205
89 1297 7145
90 119 3591
91 5711 5038
92 1417 8476
93 5795 7158
94 3378 4931
95 8335 5693
96 8225 8475
97 7328 6350
98 1230 195
99 1004 4862
100 7832 7088
EOF
