NAME: tsp_n100_uniform_train_010
TYPE: TSP
DIMENSION: 100
EDGE_WEIGHT_TYPE: EUC_2D
NODE_COORD_SECTION
1 6485 5529
2 6792 9344
3 5979 2569
4 7288 4638
5 6183 3378
6 7445 8243
7 280 4800
8 4829 7134
9 5350 533
10 2491 2647
11 4062 4475
12 7485 4669
13 120 6687
14 3890 6171
15 3926 5899
16 5973 6896
17 8327 45
18 1567 9409
19 3842 8266
20 8956 3233
21 2363 4260
22 9338 2133
23 9923 7652
24 8735 7011
25 5846 8108
26 4860 6363
27 2639 2150
28 2651 5660
29 5001 5865
30 9868 1367
31 9426 3810
32 402 1629
33 4363 3561
34 8167 1418
35 324 3909
36 4982 1952
37 6901 3118
38 439 3185
39 970 3565
40 3273 1041
41 8967 8414
42 2050 6479
43 6442 8604
44 7601 7025
45 5933 7479
46 5785 7281
47 3523 2832
48 6022 5970
49 8865 2563
50 7010 5479
51 9067 5669
52 3271 6805
53 8563 4842
54 3242 2269
55 562 2948
56 5495 7438
57 6373 3341
58 6701 1394
59 9955 7348
60 3050 2986
61 9877 7428
62 4805 4803
63 8757 9487
64 1717 843
65 6311 5747
66 6239 3611
67 5615 4604
68 2751 6377
69 3741 1850
70 7754 6578
71 5126 7322
72 6102 4654
73 6387 5394
74 1725 2911
75 3470 2283
76 7200 664
77 2049 9860
78 3386 6469
79 6566 7134
80 9230 7386
81 3146 8122
82 7546 9806
83 8781 2895
84 1969 6672
85 1213 2625
86 828 4849
87 638 1320
88 1125 7518
89 8332 9310
90 8464 554
91 4320 8309
92 9781 3930
93 9564 780
94 6859 3163
95 2576 4051
96 3423 9704
97 5261 3782
98 8250 7949
99 5122 4142
100 4690 5406
EOF
