NAME: tsp_n100_uniform_train_009
TYPE: TSP
DIMENSION: 100
EDGE_WEIGHT_TYPE: EUC_2D
NODE_COORD_SECTION
1 7882 9633
2 2791 4883
3 3484 2171
4 2002 4277
5 7536 2875
6 5350 3013
7 9462 5724
8 6126 9207
9 3094 5862
10 390 2956
11 8624 835
12 7087 8219
13 8410 253
14 2655 5637
15 3629 8085
16 5351 6561
17 4243 5641
18 3442 219
19 8581 7630
20 887 9209
21 2562 6332
22 8895 5766
23 9671 1667
24 9907 5980
25 3238 3106
26 9029 5812
27 1905 8874
28 2603 2888
29 4762 9871
30 6012 3205
31 3692 1302
32 7272 9137
33 2525 2443
34 2845 5111
35 7135 894
36 8687 1345
37 6873 2740
38 3268 6535
39 3513 5838
40 4414 4141
41 3257 9488
42 9135 5477
43 2046 5672
44 7811 4685
45 4162 3269
46 4120 3928
47 9075 9495
48 3917 8487
49 1154 3600
50 696 6203
51 8987 7606
52 2991 2225
53 1749 2235
54 700 1535
55 8297 3205
56 8797 910
57 724 5108
58 265 3337
59 4895 40
60 7021 5815
61 6604 8965
62 1446 1934
63 4792 9957
64 8174 2389
65 534 8516
66 9804 38
67 2230 8807
68 3570 8713
69 8457 4154
70 354 7737
71 1948 652
72 4709 1340
73 6146 2994
74 4790 5743
75 7003 3780
76 8582 8492
77 2144 4172
78 9038 812
79 6952 5467
80 9029 675
81 1944 9843
82 8729 5456
83 3445 8192
84 8945 2463
85 7680 9625
86 1932 8120
87 2509 907
88 2338 6056
89 6796 4919
90 7814 5223
91 3633 8309
92 4899 870
93 4424 4994
94 5339 8668
95 7443 4494
96 2513 5855
97 5712 5622
98 8079 1230
99 9012 7918
100 894 2052
EOF
