NAME: tsp_n100_uniform_train_017
TYPE: TSP
DIMENSION: 100
EDGE_WEIGHT_TYPE: EUC_2D
NODE_COORD_SECTION
1 743 6682
2 295 2443
3 49 3397
4 8171 8817
5 9958 5702
6 8847 9939
7 6530 1344
8 834 1109
9 5415 2813
10 8342 278
11 5091 3741
12 4540 4264
13 774 8779
14 3339 2621
15 375 6760
16 100 6949
17 3115 1894
18 9 7276
19 1718 8479
20 423 7135
21 257 6889
22 321 8286
23 6949 8352
24 2792 321
25 6408 7112
26 981 7203
27 1714 9201
28 1787 2000
29 6949 7451
30 8692 6386
31 9329 9686
32 2819 5765
33 8816 918
34 5754 656
35 2784 5215
36 4896 3770
37 9873 8940
38 9071 5473
39 3087 1362
40 621 1812
41 2434 8046
42 4663 5499
43 7994 390
44 8163 897
45 2644 4923
46 4172 4556
47 3042 7019
48 4019 1131
49 4921 3984
50 7668 1219
51 4838 9801
52 7459 1738
53 1823 8214
54 3899 9293
55 1898 8738
56 6582 1550
57 1414 6956
58 3056 2108
59 2383 7547
60 5511 7946
61 9859 9631
62 7228 4614
63 5816 3346
64 7060 7455
65 1519 2093
66 6468 3562
67 1770 7325
68 2398 4523
69 8226 6610
70 9098 8525
71 3029 9884
72 3180 2179
73 7291 8165
74 421 1537
75 6481 3720
76 5737 2463
77 9692 6368
78 1153 3832
79 1049 5553
80 7119 2341
81 8852 9826
82 7972 1747
83 7796 4849
84 3367 2745
85 8631 5095
86 3807 2885
87 2977 8368
88 7458 2074
89 3404 2571
90 70 5020
91 1051 9859
92 4198 3565
93 7410 5074
94 9298 282
95 2997 4220
96 2871 2137
97 1539 3480
98 2166 6525
99 2234 4582
100 7019 1134
EOF
