NAME: tsp_n100_uniform_train_011
TYPE: TSP
DIMENSION: 100
EDGE_WEIGHT_TYPE: EUC_2D
NODE_COORD_SECTION
1 8409 58
2 8201 4724
3 2792 232
4 3284 2457
5 6900 3403
6 5567 3039
7 2349 28
8 3851 380
9 9894 2019
10 4672 5862
11 6958 6763
12 9129 5154
13 9468 2850
14 6144 8364
15 7078 8006
16 4060 138
17 9078 2683
18 6030 7033
19 5237 8318
20 8964 7072
21 3385 3514
22 3598 5836
23 2971 1311
24 3878 4023
25 7659 6095
26 4337 5702
27 940 9563
28 1016 6977
29 2873 4824
30 6011 3293
31 2755 176
32 3564 2798
33 2024 9768
34 178 3153
35 9246 3208
36 8982 1441
37 3745 7242
38 285 8758
39 1099 9811
40 4360 8232
41 2003 6154
42 8134 4004
43 3983 6259
44 793 863
45 9761 9601
46 5328 4589
47 7555 2982
48 6846 2350
49 3855 6640
50 8184 1667
51 9979 8377
52 3859 5072
53 952 6179
54 19 7286
55 5122 5078
56 3032 7045
57 8969 7086
58 5852 4319
59 6726 5469
60 4123 5190
61 4855 8791
62 9131 8355
63 9767 7031
64 6531 7895
65 5348 5172
66 7313 4483
67 4415 3170
68 2709 846
69 4866 1138
70 6345 9397
71 8144 8953
72 2841 2807
73 7440 4709
74 2334 7497
75 8389 7036
76 5331 8941
77 6665 386
78 4565 7812
79 1639 482
80 2540 4355
81 1766 3238
82 7642 6405
83 2342 2897
84 475 9567
85 5528 9973
86 7935 1691
87 3349 9195
88 8176 8325
89 4504 4006
90 1431 144
91 5798 4320
92 9761 7625
93 488 3629
94 6054 5633
95 5998 4560
96 8744 5321
97 9969 6829
98 5026 9968
99 9167 6992
100 65 2475
EOF
