NAME: tsp_n100_uniform_train_016
TYPE: TSP
DIMENSION: 100
EDGE_WEIGHT_TYPE: EUC_2D
NODE_COORD_SECTION
1 4987 3471
2 2137 7840
3 4500 2621
4 9854 5389
5 144 3149
6 2396 9839
7 9809 4127
8 2513 1903
9 9845 8684
10 7400 5904
11 7594 4750
12 5742 6756
13 6229 3393
14 2107 8161
15 29 4418
16 4111 9645
17 3906 9230
18 6693 8378
19 7506 5048
20 9513 4444
21 1165 6726
22 6133 1868
23 1030 7703
24 4418 5673
25 8991 356
26 4517 1960
27 4267 430
28 6875 8283
29 2932 6387
30 1346 4271
31 6391 3651
32 22 8135
33 9349 8917
34 5363 4978
35 7073 8615
36 6973 6553
37 4246 6004
38 9482 1528
39 9765 6316
40 3226 9852
41 7657 6355
42 7175 7072
43 9267 8410
44 9726 2956
45 9988 9146
46 205 76
47 5950 4242
48 8135 8380
49 380 3338
50 7562 4973
51 3296 3744
52 7885 3204
53 7664 993
54 9621 7924
55 8362 8308
56 3499 4237
57 4873 749
58 1160 3922
59 7067 4212
60 2413 5257
61 1176 1199
62 7302 1509
63 6215 3543
64 7923 910
65 9285 4001
66 2071 5315
67 6179 3123
68 3691 4674
69 1393 7121
70 4644 827
71 9673 3261
72 4245 3353
73 7392 2655
74 4997 3592
75 689 216
76 8351 9459
77 2571 8428
78 7013 974
79 3898 4514
80 1690 4551
81 5520 7443
82 9270 8746
83 3127 2321
84 8490 1730
85 9691 9221
86 5510 6788
87 4518 3898
88 5167 7562
89 1420 8119
90 5526 7333
91 7339 1043
92 283 3898
93 113 714
94 1936 7937
95 3243 185
96 9566 4353
97 2419 7761
98 2463 1678
99 3983 5343
100 545 5361
EOF
