NAME: tsp_n100_uniform_train_008
TYPE: TSP
DIMENSION: 100
EDGE_WEIGHT_TYPE: EUC_2D
NODE_COORD_SECTION
1 8798 4547
2 3750 1525
3 1854 1154
4 4278 9228
5 5696 6018
6 4219 4721
7 6971 6837
8 7575 6723
9 8181 2341
10 8949 8522
11 678 4363
12 2414 2622
13 2730 3331
14 7910 4498
15 4628 7021
16 3427 2944
17 7133 92
18 3575 6964
19 6249 438
20 6725 4211
21 8594 1852
22 5344 6540
23 3880 5653
24 3486 1995
25 9734 4247
26 8639 3580
27 7975 1166
28 2013 4122
29 7 8611
30 7444 1905
31 8092 668
32 1312 5514
33 8226 5870
34 5173 4290
35 1139 9857
36 829 4929
37 8605 2247
38 3139 7151
39 1531 1777
40 1484 5235
41 3707 8310
42 1281 9769
43 2401 3265
44 8044 4613
45 6646 1337
46 556 3470
47 5771 475
48 6680 2009
49 4631 9856
50 96 4201
51 7941 3602
52 6000 6088
53 2486 6846
54 8324 7933
55 5998 3109
56 8096 2532
57 4168 2565
58 1266 5757
59 9438 2228
60 3801 1267
61 3432 4613
62 1675 8821
63 4234 5289
64 9633 9822
65 5146 824
66 126 9686
67 9433 2396
68 5120 607
69 4154 3404
70 469 546
71 4979 4240
72 1 7897
73 627 913
74 9774 7466
75 5236 8704
76 242 9610
77 305 9904
78 5748 9711
79 9158 5353
80 6630 6874
81 8699 5193
82 6621 4311
83 8365 4713
84 1971 4039
85 8278 4891
86 9234 8853
87 1298 929
88 5024 3852
89 7141 106
90 1592 9695
91 5363 291
92 6866 4691
93 8529 2187
94 6631 5773
95 508 165
96 3996 953
97 5214 8371
98 1835 6987
99 7500 2005
100 3686 8158
EOF
