NAME: tsp_n100_uniform_train_015
TYPE: TSP
DIMENSION: 100
EDGE_WEIGHT_TYPE: EUC_2D
NODE_COORD_SECTION
1 8367 4113
2 480 3657
3 3053 9743
4 8261 6950
5 5003 4858
6 5087 4998
7 9007 2682
8 7171 5184
9 3882 8709
10 7407 2254
11 4703 7723
12 3974 8819
13 8046 7064
14 8305 2458
15 1457 1294
16 9876 9488
17 9992 8305
18 8632 7340
19 665 8273
20 3929 5927
21 8571 7580
22 6193 49
23 4765 5445
24 5874 2147
25 6138 9112
26 3917 7395
27 7437 8309
28 7973 4002
29 5993 746
30 5144 1511
31 8448 9455
32 4981 3247
33 3890 918
34 7637 7235
35 6093 9784
36 3932 6876
37 811 7248
38 9604 4676
39 8313 3213
40 5808 8467
41 1249 3303
42 3139 4890
43 4314 2462
44 1882 296
45 8786 7203
46 2768 9111
47 1385 6125
48 2469 2828
49 5564 3105
50 9373 2981
51 8253 4335
52 8744 2947
53 6588 2811
54 5925 176
55 5198 1516
56 3669 8129
57 3557 7897
58 9756 1961
59 3488 3358
60 1269 8414
61 818 7571
62 5801 194
63 1264 1110
64 5409 2213
65 7404 4570
66 6669 317
67 4910 4674
68 9675 8875
69 3930 8540
70 2178 9196
71 3123 4429
72 3092 4969
73 951 9624
74 396 6461
75 7310 370
76 8357 3815
77 9345 6189
78 6544 8992
79 6850 2008
80 720 1670
81 6235 1204
82 8020 5652
83 9905 7225
84 6614 7970
85 2424 6224
86 6767 3926
87 970 6961
88 736 4686
89 5871 4161
90 3484 791
91 525 2992
92 7992 9009
93 5206 3398
94 4645 8596
95 4029 4883
96 7732 1934
97 7622 6083
98 7541 2568
99 3 7247
100 4438 5569
EOF
