NAME: tsp_n100_uniform_train_002
TYPE: TSP
DIMENSION: 100
EDGE_WEIGHT_TYPE: EUC_2D
NODE_COORD_SECTION
1 8396 7923
2 1194 7039
3 8826 1594
4 1662 8703
5 4692 6080
6 9526 5597
7 7715 4345
8 3656 3620
9 998 4113
10 7294 9255
11 996 9784
12 7589 8214
13 6375 7374
14 203 9791
15 2705 7723
16 7135 2204
17 3450 6373
18 3821 9455
19 9625 3890
20 6920 3667
21 1668 4201
22 5238 1992
23 1810 3458
24 3805 1248
25 5358 8754
26 3680 8148
27 6557 493
28 8136 9229
29 1835 2520
30 2166 8019
31 6405 1728
32 507 8448
33 6193 3651
34 6079 5798
35 2096 8805
36 4754 2045
37 6444 7809
38 8943 3408
39 8627 502
40 200 242
41 6219 8236
42 4085 8921
43 1440 4829
44 7082 7500
45 8768 3503
46 4851 9884
47 4285 3731
48 6904 805
49 4685 4958
50 3802 8174
51 5601 262
52 8120 5776
53 7821 6874
54 7340 9475
55 2293 2724
56 3377 2652
57 73 4251
58 7070 9727
59 2457 6840
60 8634 8669
61 5779 2504
62 679 4582
63 6065 8941
64 3491 4043
65 3010 5094
66 9493 4878
67 2746 1960
68 653 1539
69 1069 1548
70 581 8082
71 7135 7716
72 2422 5884
73 9062 3501
74 358 9266
75 2233 8110
76 2217 1533
77 4563 1597
78 1049 1916
79 3594 5335
80 8740 5957
81 8480 5472
82 5040 7321
83 2638 5647
84 6052 8401
85 5364 3415
86 9543 6033
87 4670 9917
88 2283 5373
89 1825 8671
90 1796 8043
91 1832 7407
92 8489 3182
93 8496 3468
94 6019 3826
95 9272 4055
96 9985 1752
97 1823 2229
98 354 8283
99 3660 9997
100 1982 2356
EOF
