NAME: tsp_n100_uniform_train_001
TYPE: TSP
DIMENSION: 100
EDGE_WEIGHT_TYPE: EUC_2D
NODE_COORD_SECTION
1 2164 7708
2 540 7680
3 26 814
4 7449 8119
5 70 2233
6 2872 5500
7 1658 2155
8 3286 441
9 7581 3771
10 853 2306
11 5175 5428
12 6595 8472
13 5031 9185
14 7005 9258
15 6745 1732
16 3735 1572
17 5071 5602
18 9639 7123
19 990 7110
20 2849 9838
21 2850 4217
22 4974 2353
23 2277 2488
24 4178 704
25 7814 4838
26 9489 5298
27 1893 8905
28 9145 8707
29 7011 2064
30 5105 1371
31 4551 9784
32 5899 377
33 2983 1084
34 8136 3423
35 2336 8174
36 2362 6707
37 2963 3003
38 8682 7151
39 1312 2945
40 9192 5141
41 6854 1755
42 8161 7427
43 8049 8619
44 6575 8011
45 8340 1574
46 196 4882
47 9205 7504
48 2326 9443
49 5376 9840
50 732 7414
51 3735 2104
52 3995 3501
53 2342 5597
54 5779 3743
55 9034 4774
56 7269 3154
57 5062 737
58 217 4326
59 740 5635
60 380 1436
61 4158 2145
62 7397 41
63 2213 9399
64 5500 8403
65 6170 9390
66 1269 3120
67 2619 5099
68 2821 7659
69 7870 8986
70 5934 4323
71 6965 6256
72 9525 3311
73 7184 3325
74 1155 5724
75 6810 2681
76 3309 5154
77 9928 4918
78 2149 3357
79 2600 2854
80 8466 7923
81 8373 1618
82 4471 739
83 8748 2245
84 9338 5265
85 3510 9530
86 5167 1009
87 1682 2295
88 1217 7052
89 7928 6609
90 4755 8573
91 6827 8498
92 4342 8422
93 8043 5464
94 6162 7214
95 1677 5773
96 2352 9236
97 3940 7544
98 7062 419
99 3922 210
100 9051 5157
EOF
