NAME: tsp_n100_uniform_train_018
TYPE: TSP
DIMENSION: 100
EDGE_WEIGHT_TYPE: EUC_2D
NODE_COORD_SECTION
1 4935 6668
2 5972 1792
3 5095 1647
4 6607 6751
5 1837 6941
6 7668 4425
7 4379 9741
8 2966 42
9 1139 8527
10 6573 8643
11 4793 5875
12 9153 4517
13 2611 5948
14 9460 3267
15 763 2454
16 3508 6499
17 6805 5733
18 3981 9452
19 7189 8614
20 1007 593
21 5470 2799
22 2806 5287
23 6193 1489
24 5995 3020
25 5276 3742
26 2020 442
27 5904 9626
28 2454 3663
29 5377 6036
30 5081 2193
31 3756 3679
32 3610 6578
33 6464 6338
34 9807 32
35 3111 6159
36 7762 3977
37 8599 257
38 1248 8113
39 9542 2605
40 7026 8322
41 8872 5318
42 9604 6564
43 3670 1527
44 9622 7274
45 2564 5025
46 943 5966
47 2661 6888
48 5331 4795
49 3439 8412
50 8390 8133
51 3286 8029
52 1417 7718
53 3659 3814
54 1935 3525
55 1832 2969
56 9350 7827
57 8463 956
58 9434 1154
59 2617 1408
60 4444 2118
61 3566 6368
62 123 4346
63 1749 7739
64 9050 874
65 6358 1014
66 1482 8170
67 9287 4392
68 4986 7263
69 6324 3907
70 5729 6532
71 3440 3133
72 8395 2103
73 1661 2163
74 8863 2098
75 9847 3785
76 4666 1097
77 912 5312
78 707 8504
79 8081 3423
80 5578 223
81 8991 1484
82 3827 5283
83 8753 6988
84 6431 1252
85 8475 5176
86 8094 8892
87 5415 1650
88 1098 7839
89 8747 8716
90 6899 9542
91 3518 9966
92 7128 3354
93 9803 134
94 8021 1829
95 4204 445
96 6699 8125
97 1334 7196
98 3151 8079
99 8195 1807
100 2014 5408
EOF
