NAME: tsp_n100_uniform_train_003
TYPE: TSP
DIMENSION: 100
EDGE_WEIGHT_TYPE: EUC_2D
NODE_COORD_SECTION
1 6269 4974
2 9952 244
3 6609 9710
4 8025 8025
5 9562 2993
6 2071 8288
7 8659 6914
8 6178 7247
9 5309 3024
10 190 8387
11 534 7114
12 7983 800
13 7580 578
14 2766 6549
15 2595 5392
16 4327 392
17 4945 7138
18 6238 8079
19 4736 2415
20 2342 8247
21 3841 5147
22 9267 6287
23 7002 5396
24 362 9783
25 640 2603
26 2120 4365
27 2484 8324
28 3948 500
29 4558 1021
30 4183 4122
31 3560 4952
32 950 2657
33 6893 8840
34 3404 4771
35 6752 3193
36 578 4737
37 1840 3659
38 8863 9370
39 5223 9708
40 4339 5195
41 2240 2509
42 16 3020
43 2944 386
44 9710 9370
45 3493 3725
46 7099 9822
47 3646 2530
48 6561 3941
49 334 4082
50 9573 8857
51 2634 5552
52 6847 5121
53 8069 4571
54 8753 6006
55 3576 4511
56 5217 2761
57 9504 4769
58 3483 7059
59 2317 7760
60 4670 477
61 9874 8179
62 5127 7901
63 6877 29
64 1500 6390
65 4486 3450
66 7786 7961
67 2339 2826
68 7277 2232
69 6343 8271
70 8413 5078
71 8787 3983
72 4319 114
73 3624 5651
74 6368 316
75 1467 2761
76 853 8579
77 6617 2969
78 4845 1035
79 1704 5270
80 8888 3848
81 9150 437
82 4769 6415
83 4283 5682
84 8343 6644
85 5630 6176
86 490 5329
87 4845 3362
88 7311 435
89 2925 3189
90 3547 4200
91 5130 6594
92 3002 6923
93 8086 5480
94 28 355
95 7148 4196
96 9797 3477
97 4337 9303
98 6523 3033
99 9311 7210
100 4913 6930
EOF
