NAME: tsp_n100_uniform_train_019
TYPE: TSP
DIMENSION: 100
EDGE_WEIGHT_TYPE: EUC_2D
NODE_COORD_SECTION
1 4432 3432
2 6130 6158
3 320 870
4 3897 4841
5 5912 4312
6 9562 369
7 6519 8034
8 8436 8135
9 3469 1620
10 8814 5517
11 684 3665
12 6833 2576
13 2429 9129
14 7116 4664
15 5590 8091
16 9226 7685
17 8892 5054
18 6511 7223
19 1786 3256
20 2955 784
21 7066 5632
22 4766 4524
23 2311 4135
24 5012 52
25 5930 4836
26 8253 5096
27 9754 3635
28 9153 1225
29 7863 771
30 2056 4622
31 7876 6061
32 6292 4589
33 6934 8001
34 1352 5921
35 9141 423
36 6017 6886
37 9247 4660
38 8967 8279
39 3926 1880
40 6316 1419
41 1180 6314
42 216 8956
43 7062 1645
44 2668 7598
45 6997 1353
46 8448 6005
47 326 1817
48 3653 3465
49 8919 8015
50 4877 3144
51 2998 7399
52 1481 3842
53 7707 84
54 9389 2179
55 5703 5992
56 6713 531
57 4802 2933
58 5924 8602
59 8439 91
60 3844 1048
61 4415 7746
62 151 181
63 4218 2177
64 8905 3307
65 6499 8445
66 1975 9127
67 6336 9351
68 7487 7301
69 8970 6200
70 6192 5096
71 6431 9826
72 8639 9337
73 9940 62
74 5323 8155
75 2333 2949
76 9648 5479
77 3529 6856
78 2908 2945
79 1325 4364
80 1115 7926
81 8741 7984
82 1312 608
83 7797 6080
84 790 7860
85 5282 7128
86 4423 7739
87 8135 4644
88 6967 127
89 6888 6625
90 5093 4680
91 2524 7204
92 3887 70
93 9915 8817
94 9889 1882
95 112 1312
96 4957 7181
97 364 8791
98 3153 9172
99 2259 2531
100 858 2120
EOF
