NAME: tsp_n100_uniform_train_006
TYPE: TSP
DIMENSION: 100
EDGE_WEIGHT_TYPE: EUC_2D
NODE_COORD_SECTION
1 1235 2354
2 6481 9836
3 9354 1442
4 8468 3390
5 3765 6416
6 522 7003
7 8751 4825
8 7061 6420
9 4152 5824
10 2882 9333
11 3482 7607
12 2184 2322
13 6025 2230
14 6265 6830
15 437 4328
16 5033 5929
17 7457 845
18 7043 153
19 3856 7005
20 1296 4711
21 7480 3644
22 114 6511
23 5405 6569
24 1636 3349
25 2844 8133
26 448 5016
27 2718 5595
28 7775 7765
29 9594 3193
30 2451 2215
31 3342 8036
32 1064 7310
33 8584 9626
34 3083 7513
35 9876 22
36 1796 5587
37 4862 2307
38 3156 440
39 5104 1895
40 5962 8461
41 1252 401
42 2665 5599
43 8790 7427
44 5178 9285
45 3976 4032
46 3586 2534
47 1569 4152
48 7241 2480
49 2961 2491
50 4063 7129
51 9194 8080
52 7516 3468
53 5027 1454
54 6334 6723
55 233 4563
56 80 9641
57 2948 7951
58 7123 4732
59 1795 7898
60 4408 8553
61 7191 6291
62 3823 7286
63 7282 3623
64 57 4220
65 1556 818
66 5938 1904
67 2060 6251
68 5784 3670
69 8760 2043
70 9164 2993
71 3158 3337
72 313 1942
73 5372 8713
74 6966 826
75 5886 959
76 1965 8240
77 5614 2321
78 7897 5481
79 2379 4340
80 5367 12
81 641 1087
82 5023 5755
83 4691 7240
84 3841 2158
85 2208 504
86 108 9648
87 8695 7486
88 7024 7688
89 5290 4874
90 7852 9105
91 1394 4118
92 7297 1631
93 9547 7967
94 3297 247
95 9782 6875
96 7003 6975
97 1055 1948
98 7599 8308
99 6689 8468
100 244 3499
EOF
