NAME: tsp_n100_uniform_train_007
TYPE: TSP
DIMENSION: 100
EDGE_WEIGHT_TYPE: EUC_2D
NODE_COORD_SECTION
1 9793 2103
2 5225 4572
3 9962 3290
4 2892 7684
5 2701 1246
6 5186 3653
7 266 6012
8 2157 3641
9 7030 4025
10 9586 4335
11 0 8318
12 1207 424
13 9714 2391
14 6632 5040
15 8892 6492
16 712 4029
17 1345 6474
18 4897 6620
19 442 1117
20 718 8111
21 6664 5812
22 1997 6118
23 2810 2581
24 3143 3416
25 5506 6718
26 7967 8353
27 4217 4154
28 4216 4491
29 5087 4266
30 5907 8770
31 7452 743
32 9776 8697
33 7293 9164
34 4003 5295
35 5764 7546
36 2586 4147
37 7144 1194
38 6748 5340
39 7180 8716
40 9584 4365
41 4483 9468
42 164 4813
43 5676 8030
44 8676 2874
45 9106 2806
46 5411 8138
47 6103 4683
48 4009 5615
49 1246 8883
50 1003 6965
51 5339 2950
52 5949 2858
53 9646 8506
54 3449 5237
55 8936 4102
56 8488 1611
57 4810 5913
58 371 3664
59 4152 6986
60 253 2735
61 2548 7053
62 9136 5160
63 9369 3986
64 9043 2653
65 9885 3252
66 9102 2394
67 6802 8163
68 6550 7044
69 6884 3179
70 5208 5051
71 4778 1330
72 6660 3688
73 3433 378
74 2653 9919
75 3491 3620
76 445 822
77 2701 6899
78 5850 8166
79 2420 4921
80 7229 2642
81 6751 128
82 8536 8689
83 9042 1019
84 7310 3682
85 2519 5859
86 8773 7487
87 5500 3326
88 7214 721
89 4233 8026
90 3230 38
91 6715 5159
92 1894 8376
93 9005 1002
94 3319 8109
95 2151 2223
96 2731 2435
97 8175 8431
98 538 645
99 142 9895
100 7527 2431
EOF
