NAME: tsp_n100_uniform_train_014
TYPE: TSP
DIMENSION: 100
EDGE_WEIGHT_TYPE: EUC_2D
NODE_COORD_SECTION
1 7674 6233
2 2398 7194
3 6006 6632
4 3871 1943
5 6072 4082
6 1042 5840
7 9128 5578
8 7489 2303
9 5236 7620
10 5586 4062
11 7220 6346
12 5246 7157
13 310 7638
14 7268 2548
15 3537 8400
16 8264 9011
17 1101 4488
18 8561 9255
19 5552 1454
20 3428 2351
21 3034 9493
22 7593 4003
23 8134 9904
24 813 4636
25 4781 6095
26 9136 967
27 7642 6043
28 3223 7934
29 5699 636
30 2617 8917
31 8539 6956
32 1134 8370
33 9510 1375
34 9342 9467
35 8061 4799
36 4923 1418
37 517 1070
38 7628 8075
39 2004 537
40 29 2280
41 8800 6541
42 3487 1898
43 5148 9440
44 5458 7723
45 6749 747
46 8493 3818
47 2131 9000
48 3067 4200
49 7907 1463
50 5866 8170
51 9704 6642
52 4822 7277
53 3028 5706
54 3651 238
55 4610 5520
56 150 7916
57 7003 5696
58 9366 4162
59 7489 3475
60 9288 1747
61 715 1247
62 8409 4994
63 135 690
64 3749 6261
65 2812 399
66 6641 104
67 1940 5757
68 6634 1212
69 1838 6402
70 8027 7976
71 1379 1131
72 6000 9964
73 7443 2609
74 2623 2411
75 1291 6509
76 728 2502
77 8634 6895
78 7369 5140
79 6415 6182
80 6021 6816
81 6225 4971
82 1812 5914
83 304 2140
84 9674 7850
85 3315 9245
86 8686 8249
87 8006 3932
88 5076 3423
89 5568 285
90 9067 6509
91 1740 7742
92 7691 9655
93 3703 1399
94 5398 7952
95 3161 3548
96 4018 7619
97 1916 8690
98 1704 9658
99 8573 3953
100 1492 4289
EOF
