NAME: tsp_n100_uniform_train_005
TYPE: TSP
DIMENSION: 100
EDGE_WEIGHT_TYPE: EUC_2D
NODE_COORD_SECTION
1 6762 5337
2 4104 5919
3 4917 5359
4 2710 9770
5 5258 8508
6 7043 4197
7 6538 8829
8 7992 7674
9 6797 4913
10 9627 5307
11 9257 569
12 7955 8363
13 8504 6512
14 5006 259
15 4171 7527
16 9890 7553
17 8380 8575
18 5139 9666
19 6959 3192
20 3562 9988
21 8259 6125
22 7703 748
23 387 25
24 1281 1614
25 8604 100
26 7536 52
27 6346 81
28 1959 1232
29 3402 7121
30 4915 5460
31 531 3565
32 9967 3039
33 4051 8881
34 7684 2936
35 2004 2215
36 9572 2985
37 7751 9161
38 8593 9565
39 6282 1913
40 5614 4279
41 7481 4653
42 3653 7061
43 4662 1928
44 7308 4911
45 2067 6886
46 1137 2448
47 4984 8925
48 6953 543
49 3418 2184
50 5021 3623
51 4036 2160
52 2690 5274
53 4929 4061
54 499 1742
55 9984 8513
56 9433 4972
57 9554 4252
58 8561 362
59 8552 158
60 5380 6107
61 8625 9123
62 8770 3489
63 6393 798
64 5725 2926
65 9192 201
66 6683 5207
67 2952 7770
68 4875 5754
69 4006 8557
70 1807 6953
71 485 9048
72 5997 1636
73 9976 6554
74 1701 9561
75 29 4990
76 4804 5293
77 1742 1816
78 8971 2040
79 1958 3152
80 4291 8872
81 3539 5045
82 2872 7745
83 4789 1878
84 3949 7298
85 205 4187
86 1210 9365
87 8331 519
88 1153 6799
89 8925 4793
90 6987 7004
91 4351 59
92 3014 4554
93 6835 4682
94 1831 6743
95 2714 6654
96 7485 9870
97 4880 5155
98 7683 4119
99 621 1262
100 9440 9945
EOF
