NAME: tsp_n100_uniform_train_013
TYPE: TSP
DIMENSION: 100
EDGE_WEIGHT_TYPE: EUC_2D
NODE_COORD_SECTION
1 3074 2728
2 1637 2523
3 9911 7354
4 421 990
5 7069 6785
6 5805 3866
7 6542 751
8 2820 5837
9 9935 4932
10 8309 4940
11 8626 4949
12 3992 786
13 7440 4555
14 8484 5704
15 1017 7637
16 1183 9710
17 5646 2108
18 1659 8290
19 1573 9041
20 8453 523
21 603 1651
22 3150 9030
23 8904 1853
24 3891 9989
25 3521 4803
26 6547 9065
27 8385 5257
28 2240 873
29 3411 1190
30 3872 6622
31 6642 259
32 2485 6604
33 1548 9526
34 6173 5851
35 8698 1262
36 2986 3661
37 7455 3494
38 1069 8957
39 8505 3143
40 8001 858
41 584 8842
42 1086 5702
43 2557 5707
44 3491 9669
45 2601 5359
46 7835 1072
47 789 3209
48 3824 5750
49 8861 8543
50 5168 3173
51 6157 3742
52 2832 883
53 1776 497
54 8391 9251
55 1446 8593
56 2766 7755
57 4674 6388
58 7803 1739
59 8167 7431
60 7937 1538
61 7851 9007
62 8982 4147
63 8040 3091
64 5237 9204
65 8153 9329
66 1208 6426
67 5380 2699
68 2773 3781
69 8903 4967
70 5558 2895
71 8431 7589
72 251 7670
73 6395 7661
74 8284 4295
75 5731 1418
76 3953 5798
77 8 3029
78 3656 6103
79 1884 3452
80 1479 6874
81 8633 4182
82 7368 752
83 2157 3454
84 9797 924
85 9314 626
86 6135 2989
87 3407 6462
88 1046 5668
89 8178 7915
90 9385 8371
91 5469 6090
92 940 7868
93 8063 6393
94 5011 5950
95 2207 104
96 4407 6802
97 4291 4339
98 119 2400
99 8489 521
100 3467 2729
EOF
