NAME: ovrp_uniform_n50_medium_train_008-k8
TYPE: CVRP
DIMENSION: 50
EDGE_WEIGHT_TYPE: EUC_2D
CAPACITY: 50
NODE_COORD_SECTION
1 8773 6766
2 2905 9405
3 6926 7843
4 1297 4483
5 7959 1902
6 402 3661
7 1588 418
8 6742 8049
9 7397 1314
10 4184 322
11 2075 2306
12 9363 8178
13 950 3841
14 7189 2725
15 8968 7700
16 6752 3456
17 515 3348
18 765 2730
19 7468 3433
20 4120 3638
21 1700 9272
22 5922 2623
23 3104 433
24 4295 6162
25 4625 5354
26 3888 6348
27 273 5852
28 4061 1462
29 8195 8676
30 7474 2369
31 847 3955
32 136 2414
33 5021 8557
34 293 9668
35 1476 7787
36 6598 3006
37 6841 8612
38 193 8180
39 7129 2218
40 6610 9820
41 5988 9559
42 4954 4796
43 3078 4251
44 953 6461
45 8545 956
46 3344 1945
47 7879 5174
48 1608 7509
49 6899 1392
50 9282 2436
DEMAND_SECTION
1 0
2 6
3 7
4 6
5 3
6 2
7 1
8 10
9 10
10 6
11 4
12 2
13 6
14 6
15 1
16 9
17 5
18 4
19 7
20 7
21 6
22 1
23 6
24 10
25 6
26 10
27 9
28 1
29 6
30 10
31 7
32 7
33 3
34 2
35 3
36 10
37 9
38 3
39 10
40 10
41 9
42 5
43 7
44 3
45 9
46 7
47 7
48 6
49 7
50 8
DEPOT_SECTION
1
-1
EOF
