NAME: ovrp_uniform_n50_medium_train_019-k8
TYPE: CVRP
DIMENSION: 50
EDGE_WEIGHT_TYPE: EUC_2D
CAPACITY: 53
NODE_COORD_SECTION
1 4991 7002
2 6917 1229
3 6102 4061
4 2066 8231
5 3763 1678
6 2950 3207
7 2643 5918
8 3507 9855
9 553 684
10 65 7444
11 5969 6152
12 504 1991
13 737 9493
14 8794 7868
15 2603 4960
16 9631 8071
17 4807 1267
18 5098 232
19 2146 1810
20 4698 1671
21 2749 7878
22 6358 3888
23 4751 9908
24 9327 8077
25 5290 9542
26 765 3135
27 6415 9978
28 1478 5338
29 8403 1709
30 9611 1862
31 6299 5818
32 8729 1458
33 3476 8328
34 3283 9764
35 8586 1202
36 2990 3751
37 669 982
38 5712 6400
39 9306 7611
40 7801 5756
41 1578 6730
42 6192 2064
43 6621 8611
44 9309 4504
45 1077 3370
46 7280 1352
47 9285 9702
48 8430 4517
49 3530 2251
50 8135 5866
DEMAND_SECTION
1 0
2 9
3 6
4 10
5 9
6 4
7 10
8 6
9 10
10 3
11 3
12 10
13 2
14 9
15 3
16 5
17 6
18 1
19 8
20 5
21 3
22 9
23 5
24 7
25 6
26 6
27 8
28 10
29 7
30 5
31 7
32 10
33 3
34 1
35 4
36 7
37 5
38 7
39 9
40 9
41 2
42 10
43 10
44 5
45 10
46 7
47 2
48 7
49 9
50 8
DEPOT_SECTION
1
-1
EOF
