NAME: tsp_n200_uniform_smoke_000
TYPE: TSP
DIMENSION: 200
EDGE_WEIGHT_TYPE: EUC_2D
NODE_COORD_SECTION
1 9646 699
2 3476 4608
3 1871 3355
4 7001 3697
5 7698 1321
6 530 9665
7 2948 718
8 5746 5638
9 7755 1950
10 7871 4367
11 7216 6102
12 8617 1081
13 7474 7410
14 3127 5262
15 4409 2231
16 104 3961
17 9034 8432
18 2009 8621
19 7013 8320
20 2568 4609
21 7812 116
22 3501 3593
23 2822 1282
24 1670 6058
25 9437 6189
26 5007 2976
27 4118 8373
28 6128 7563
29 433 9005
30 7089 5407
31 3534 2970
32 3524 1300
33 4453 1708
34 2651 5402
35 8149 151
36 9791 804
37 3992 3723
38 2472 9534
39 2577 1444
40 3190 2925
41 4633 2697
42 2602 2108
43 6259 1386
44 8002 8738
45 4150 9712
46 882 8982
47 102 5426
48 5000 7850
49 8013 4656
50 6025 8922
51 945 6869
52 1488 4673
53 672 368
54 4886 3081
55 1646 1803
56 480 9277
57 65 1242
58 8890 5923
59 7300 5595
60 6204 5256
61 5585 9418
62 1646 6025
63 5121 460
64 9961 8209
65 8985 4000
66 4524 7862
67 7973 3383
68 1426 8718
69 1038 8667
70 2003 328
71 2922 1336
72 6444 8755
73 3703 4036
74 3805 2836
75 3303 2827
76 24 8318
77 1503 7098
78 6708 7955
79 8674 3186
80 8054 9326
81 9641 3578
82 8916 440
83 6684 1984
84 7897 9562
85 9502 8237
86 3252 6189
87 3820 6262
88 25 5302
89 6651 3030
90 6399 8587
91 4218 7803
92 8629 6362
93 2529 8527
94 9301 4860
95 9029 2223
96 9628 9529
97 8101 2014
98 3501 8680
99 2527 6098
100 1406 6340
101 8800 1615
102 4388 3686
103 4954 6193
104 2272 2665
105 7471 5941
106 5135 539
107 8652 9109
108 8964 5830
109 5957 9104
110 5071 63
111 8290 8549
112 3673 4533
113 1664 1204
114 6695 9835
115 3901 7158
116 6495 2128
117 3177 5269
118 3643 6487
119 9341 5673
120 7649 5080
121 3606 891
122 7965 8242
123 5980 9746
124 1060 1470
125 9702 3201
126 8255 463
127 3794 1326
128 4292 2051
129 643 4711
130 4639 5585
131 5218 5917
132 8344 2005
133 1822 2530
134 5946 3138
135 3829 1997
136 3416 5144
137 6915 2710
138 946 3610
139 6559 3664
140 4012 669
141 5678 4699
142 4089 1300
143 5383 2213
144 3654 3313
145 75 7371
146 2127 3626
147 2374 9855
148 7094 4182
149 6538 2286
150 6122 694
151 9476 4947
152 9179 8818
153 1429 8919
154 8807 9483
155 6044 3654
156 6109 2554
157 9969 2292
158 3571 2988
159 7953 4620
160 8170 3132
161 1033 4025
162 8815 1265
163 1864 765
164 666 3841
165 8076 117
166 9968 3437
167 5589 6996
168 6334 2412
169 629 1131
170 1506 9379
171 563 7486
172 1395 1018
173 734 5235
174 6949 931
175 9669 7716
176 4963 1505
177 8711 3153
178 5500 4965
179 2703 9177
180 9787 2869
181 505 7419
182 6019 660
183 725 3831
184 4275 6281
185 630 5656
186 1547 1407
187 4801 8627
188 4681 6679
189 9165 9991
190 5323 9874
191 3099 3667
192 6877 8284
193 5800 9042
194 7174 8507
195 1928 7334
196 4837 409
197 5756 9511
198 6833 867
199 1087 3200
200 3748 933
EOF
