NAME: tsp_n200_uniform_smoke_001
TYPE: TSP
DIMENSION: 200
EDGE_WEIGHT_TYPE: EUC_2D
NODE_COORD_SECTION
1 565 2511
2 7978 8066
3 8921 8702
4 1654 8711
5 2687 9521
6 3715 6836
7 3877 223
8 1889 9907
9 3461 6636
10 3731 8510
11 2993 8908
12 5056 4407
13 829 6852
14 5507 1536
15 4272 6177
16 8155 4135
17 5537 1223
18 2034 6506
19 599 8815
20 5368 703
21 7682 3768
22 2683 1594
23 1612 2249
24 1993 6873
25 4047 5732
26 6815 7429
27 8328 7534
28 9854 9995
29 95 8244
30 5221 5992
31 3977 6072
32 7905 4566
33 1562 17
34 9200 4931
35 2585 7544
36 109 5976
37 8441 8942
38 7923 2893
39 9260 7767
40 8682 7693
41 9422 9699
42 1981 6556
43 5174 504
44 4166 2481
45 8879 4176
46 9268 7499
47 9572 3127
48 8402 4233
49 4500 8623
50 8984 3960
51 2089 7010
52 9114 8481
53 1163 8733
54 3515 753
55 2340 7385
56 7795 2017
57 7833 1281
58 4947 6392
59 4975 8079
60 9514 7825
61 3 9498
62 4255 8586
63 2495 3026
64 8907 8755
65 6190 8356
66 4375 8157
67 7754 5255
68 1943 142
69 3180 4813
70 6742 1260
71 5004 2263
72 8564 7561
73 8049 8427
74 3429 3586
75 5226 6644
76 2811 9263
77 2095 8525
78 1879 5667
79 5971 1984
80 3295 5376
81 9952 7473
82 4332 3639
83 6309 539
84 1832 4917
85 3886 6143
86 9554 8604
87 3171 2353
88 7482 990
89 7324 3259
90 9067 3918
91 2351 3810
92 3966 2901
93 3275 2663
94 727 3910
95 2197 2159
96 5318 8260
97 1763 5530
98 6583 2586
99 8257 3594
100 8738 9990
101 7476 8142
102 499 9854
103 7032 2833
104 2926 7429
105 6516 6916
106 3138 9698
107 3451 1170
108 1818 3989
109 8414 6997
110 4738 1033
111 2396 219
112 2024 6183
113 3911 3015
114 4098 9431
115 8606 8152
116 3268 7778
117 3777 3271
118 9887 4207
119 5134 9255
120 6728 6765
121 4612 4148
122 7943 1499
123 7004 5326
124 5716 2285
125 4891 8731
126 5885 7399
127 7463 782
128 2258 6999
129 4911 8929
130 708 5212
131 5468 960
132 6181 97
133 2764 5001
134 4828 6115
135 7592 3629
136 2667 4458
137 1066 9734
138 9007 8404
139 3394 4768
140 7758 8765
141 3158 6672
142 60 2790
143 558 5999
144 3158 3746
145 2352 226
146 4282 5898
147 544 3794
148 3269 4291
149 2311 5979
150 5364 2473
151 9372 4053
152 4406 6855
153 9506 6277
154 2203 7312
155 9547 5867
156 879 9135
157 3974 4488
158 9055 5139
159 3112 9420
160 3007 9630
161 4876 3686
162 4566 1922
163 4063 1469
164 8290 9897
165 8593 8293
166 1857 6467
167 9168 4506
168 6749 1379
169 5993 6439
170 4919 3220
171 946 7653
172 2557 7342
173 9254 6763
174 7692 1704
175 7304 341
176 9148 2199
177 1960 1759
178 8566 5184
179 4502 3099
180 2066 2854
181 6584 6168
182 7876 9054
183 6236 7364
184 3895 2152
185 4907 4798
186 5082 1169
187 7814 5607
188 9370 1299
189 6680 5421
190 306 8121
191 3681 230
192 6239 9617
193 3620 2078
194 2049 5537
195 3485 8141
196 607 4561
197 7873 5219
198 6553 9700
199 5415 9392
200 8551 6558
EOF
