NAME: tsp_uniform_n50_c_train_018
TYPE: TSP
DIMENSION: 50
EDGE_WEIGHT_TYPE: EUC_2D
NODE_COORD_SECTION
1 3564 44
2 2431 9199
3 9461 665
4 7665 2883
5 6953 6424
6 7103 584
7 4831 5750
8 691 3492
9 1413 7757
10 2420 4439
11 4782 7038
12 6379 7649
13 2767 9184
14 9942 2564
15 433 3453
16 9863 9330
17 7081 6551
18 1583 2716
19 2044 3169
20 2659 5633
21 686 9774
22 2318 3540
23 3491 2225
24 5650 2597
25 3526 4147
26 9332 910
27 2462 7086
28 4695 7078
29 4084 2452
30 760 9711
31 2448 7322
32 770 4675
33 6709 2523
34 6027 3151
35 5429 7281
36 9639 6540
37 7684 4161
38 6356 9324
39 6982 5485
40 8464 9468
41 6086 6345
42 6145 2651
43 9037 3780
44 3613 1920
45 5939 9831
46 5859 6010
47 4369 1354
48 2779 4650
49 5890 1616
50 1673 4685
EOF
