NAME: tsp_uniform_n50_c_train_002
TYPE: TSP
DIMENSION: 50
EDGE_WEIGHT_TYPE: EUC_2D
NODE_COORD_SECTION
1 4483 8179
2 4278 677
3 3108 7894
4 4393 8731
5 9237 6980
6 9666 1165
7 4226 8233
8 4186 484
9 8762 5371
10 8508 1937
11 6314 2291
12 5502 8026
13 7206 3513
14 2775 3874
15 864 7658
16 5634 2056
17 396 8420
18 1067 5155
19 7740 1406
20 4110 4967
21 6640 7766
22 1947 228
23 2287 2274
24 3478 4656
25 5723 2087
26 7621 1714
27 3356 1057
28 1129 4156
29 5276 9943
30 8632 8119
31 7443 9544
32 814 3958
33 8292 69
34 412 9012
35 3466 4388
36 6768 9305
37 9858 1440
38 2252 646
39 9482 6409
40 6467 9850
41 3091 1292
42 1499 8832
43 2623 2377
44 4138 8258
45 2018 9790
46 7549 2898
47 4115 9705
48 3307 3314
49 4497 5338
50 9152 746
EOF
