NAME: tsp_uniform_n50_c_train_012
TYPE: TSP
DIMENSION: 50
EDGE_WEIGHT_TYPE: EUC_2D
NODE_COORD_SECTION
1 2513 6001
2 3926 2810
3 8323 577
4 2493 9830
5 2087 7668
6 7829 3293
7 4230 9237
8 2273 3398
9 5312 4308
10 6266 8629
11 5516 2347
12 5573 6069
13 5809 5001
14 9296 6754
15 5051 6686
16 4395 2668
17 7579 4576
18 2013 6510
19 585 8468
20 46 163
21 8711 6027
22 8480 1920
23 3568 6294
24 5755 5484
25 5448 6873
26 6206 9941
27 2272 9149
28 4454 5877
29 8888 4768
30 4128 7888
31 5651 6576
32 3482 726
33 1943 5199
34 8949 116
35 4202 9402
36 9809 8363
37 8958 4875
38 1367 5018
39 9735 2312
40 4530 4429
41 1238 3528
42 1505 8466
43 2973 3405
44 9954 733
45 6775 7653
46 9789 7814
47 1215 27
48 1009 5697
49 5881 7199
50 6172 7760
EOF
