NAME: tsp_uniform_n50_c_train_014
TYPE: TSP
DIMENSION: 50
EDGE_WEIGHT_TYPE: EUC_2D
NODE_COORD_SECTION
1 9586 3738
2 4291 9400
3 7341 9013
4 4980 781
5 9445 5340
6 1343 6051
7 2675 9763
8 7257 7387
9 5885 9011
10 3435 6348
11 509 19
12 6435 7007
13 657 24
14 56 3414
15 9323 3766
16 6119 9641
17 7738 423
18 5047 1459
19 9413 4239
20 2335 160
21 875 7153
22 6629 6127
23 1270 6981
24 8757 1969
25 5094 2742
26 8821 9562
27 3140 1396
28 8276 79
29 9379 5798
30 3635 9868
31 7264 432
32 3656 1992
33 1207 5863
34 2715 99
35 4978 187
36 104 6220
37 4914 7201
38 218 2730
39 5372 2502
40 8808 1336
41 4245 5257
42 9136 5006
43 6819 8221
44 827 1825
45 403 2272
46 9065 1242
47 4951 6377
48 2661 487
49 8644 5404
50 6732 1486
EOF
