NAME: tsp_uniform_n50_c_train_011
TYPE: TSP
DIMENSION: 50
EDGE_WEIGHT_TYPE: EUC_2D
NODE_COORD_SECTION
1 6185 3501
2 4889 4309
3 7163 8564
4 4621 3585
5 6530 350
6 8201 1841
7 9056 4097
8 583 8511
9 3957 9582
10 7719 6588
11 8692 9602
12 743 3954
13 655 7459
14 9079 9282
15 4377 8310
16 1856 9571
17 5485 8238
18 4872 4908
19 9424 3144
20 9274 14
21 3414 6706
22 273 5901
23 3273 321
24 5785 3114
25 8495 2793
26 9565 8717
27 2243 7234
28 2561 8974
29 2569 2901
30 9204 8644
31 5679 5525
32 1115 7446
33 5356 3565
34 3065 139
35 8397 805
36 2272 1058
37 211 1172
38 7228 1684
39 2705 8234
40 9614 4017
41 9692 172
42 9 6611
43 3728 3457
44 5383 7402
45 7809 1885
46 2427 6215
47 2714 3938
48 1671 4993
49 22 9408
50 5378 291
EOF
