NAME: tsp_uniform_n50_c_train_015
TYPE: TSP
DIMENSION: 50
EDGE_WEIGHT_TYPE: EUC_2D
NODE_COORD_SECTION
1 4232 3795
2 5967 1027
3 8475 2935
4 2407 238
5 1313 1071
6 60 5764
7 7058 3493
8 3769 8436
9 8351 7744
10 8100 9953
11 9880 1884
12 9584 8573
13 2194 8288
14 8390 9383
15 1878 7387
16 7375 1909
17 5570 3639
18 8322 2387
19 4434 5302
20 4904 9202
21 1198 7344
22 7314 1932
23 8145 4255
24 223 7255
25 3989 3081
26 8483 3756
27 555 9321
28 8013 4999
29 8436 6829
30 9963 6277
31 5252 677
32 7959 1922
33 6401 1717
34 3977 7420
35 9282 8435
36 9096 8641
37 6070 5788
38 2367 9844
39 8170 860
40 666 6768
41 4690 9452
42 609 7564
43 5344 9924
44 7887 9764
45 5782 2562
46 7329 8832
47 9302 2338
48 2425 409
49 5275 3777
50 3969 6875
EOF
