NAME: tsp_uniform_n50_c_train_003
TYPE: TSP
DIMENSION: 50
EDGE_WEIGHT_TYPE: EUC_2D
NODE_COORD_SECTION
1 4506 2625
2 8711 6254
3 9934 7524
4 3972 7176
5 1086 3616
6 7489 5644
7 9927 8226
8 4650 3035
9 9936 6532
10 29 8391
11 7336 6295
12 2770 7230
13 2869 4622
14 7248 9669
15 6270 4694
16 6701 1293
17 7297 3301
18 2474 2176
19 7619 5
20 1502 979
21 359 782
22 190 4399
23 6975 3701
24 4928 7738
25 1192 255
26 7696 8126
27 518 1382
28 3109 8639
29 3631 9459
30 830 1251
31 6456 2224
32 2053 6460
33 6098 1521
34 2474 9848
35 6570 4259
36 8825 6890
37 2883 5980
38 1669 5259
39 9788 4551
40 3112 1562
41 6439 4709
42 6786 5329
43 6079 7560
44 5286 5773
45 7008 7343
46 5517 3610
47 6980 459
48 255 3707
49 5538 7742
50 6786 5295
EOF
