NAME: tsp_uniform_n50_c_train_001
TYPE: TSP
DIMENSION: 50
EDGE_WEIGHT_TYPE: EUC_2D
NODE_COORD_SECTION
1 8016 7513
2 2744 9967
3 1507 5162
4 7571 5988
5 465 2585
6 1627 7778
7 6726 8703
8 335 2118
9 8826 2033
10 7393 3833
11 7190 9948
12 2113 4959
13 644 7538
14 9543 8861
15 5805 9485
16 2512 9632
17 5914 1444
18 3843 330
19 6184 5576
20 8030 12
21 7027 3495
22 5235 8224
23 8290 4017
24 6209 1181
25 1963 523
26 7961 3060
27 6727 2571
28 366 9103
29 5109 7657
30 7260 5801
31 2315 214
32 1537 5488
33 6879 9450
34 3945 7910
35 1166 2853
36 3634 2251
37 6347 7198
38 6935 3945
39 7645 7403
40 934 1207
41 9613 4907
42 9987 7973
43 1111 5605
44 177 5496
45 9784 5722
46 2546 7237
47 8225 6809
48 8002 64
49 4201 931
50 4553 9470
EOF
