NAME: tsp_uniform_n50_c_train_013
TYPE: TSP
DIMENSION: 50
EDGE_WEIGHT_TYPE: EUC_2D
NODE_COORD_SECTION
1 6135 2109
2 216 6561
3 1550 7146
4 4119 1172
5 6194 5407
6 9966 1518
7 8554 4805
8 1254 1717
9 1083 2372
10 1771 891
11 6205 3174
12 4148 1897
13 2110 6980
14 8735 4176
15 4218 9443
16 2271 3639
17 7934 6461
18 1316 3657
19 4188 7922
20 6245 3115
21 537 3992
22 8285 9095
23 3400 3153
24 4193 5401
25 7894 6891
26 2156 9475
27 8176 7330
28 554 7379
29 3412 3436
30 9274 3141
31 3048 166
32 7877 9547
33 3708 6277
34 516 8081
35 7783 2459
36 667 2539
37 1134 9003
38 4557 5884
39 9020 9683
40 4875 7789
41 6729 5997
42 8380 7751
43 2336 8340
44 75 9882
45 6297 6300
46 8724 7649
47 2499 2634
48 7702 236
49 909 2663
50 110 6705
EOF
