NAME: tsp_uniform_n50_c_train_019
TYPE: TSP
DIMENSION: 50
EDGE_WEIGHT_TYPE: EUC_2D
NODE_COORD_SECTION
1 3124 2799
2 7291 4668
3 6822 8991
4 6719 5891
5 1390 3085
6 1360 582
7 2747 7208
8 1499 7043
9 1245 970
10 6706 8233
11 8725 8900
12 5901 1389
13 4580 6979
14 8917 3023
15 128 3140
16 8272 7456
17 3604 4628
18 9610 3993
19 6485 2434
20 9150 9851
21 289 3029
22 8454 7444
23 3857 4743
24 3686 6054
25 5520 1343
26 4035 1296
27 5144 4027
28 1704 2779
29 2503 2492
30 233 3686
31 4471 893
32 7932 8857
33 1802 2884
34 9197 4269
35 8237 5420
36 7233 6104
37 4497 9924
38 1756 1620
39 2977 4260
40 3506 8060
41 6472 1459
42 2118 4120
43 8464 7414
44 618 5440
45 4604 6898
46 8833 596
47 5528 812
48 9346 9816
49 9634 148
50 2682 8625
EOF
