NAME: tsp_uniform_n50_c_train_017
TYPE: TSP
DIMENSION: 50
EDGE_WEIGHT_TYPE: EUC_2D
NODE_COORD_SECTION
1 3260 9627
2 5902 7118
3 772 4079
4 3128 4633
5 4734 9994
6 5238 6787
7 3425 2955
8 8386 2903
9 2457 2786
10 6098 677
11 2599 4398
12 3106 5834
13 3552 2107
14 2947 4123
15 5696 3507
16 820 2626
17 4277 4256
18 2258 239
19 7551 7903
20 5954 1483
21 4357 9261
22 6617 3993
23 60 6617
24 9845 9147
25 7045 6359
26 5922 4880
27 3842 8953
28 541 550
29 4047 999
30 102 4075
31 857 7742
32 1847 9994
33 7313 5819
34 6653 2765
35 546 6385
36 3218 3316
37 7281 1784
38 3636 433
39 2781 1783
40 8918 491
41 4096 8899
42 1174 9603
43 4180 2257
44 3102 5057
45 2667 6105
46 4847 2607
47 8915 4141
48 6861 1762
49 1556 9454
50 3760 6667
EOF
