NAME: tsp_uniform_n50_c_train_010
TYPE: TSP
DIMENSION: 50
EDGE_WEIGHT_TYPE: EUC_2D
NODE_COORD_SECTION
1 3806 3693
2 7214 4558
3 7 7696
4 217 2176
5 2532 5779
6 5253 6233
7 4932 2254
8 3396 7980
9 5840 4336
10 7170 3307
11 5291 2516
12 5981 5577
13 2810 5003
14 2225 6543
15 4608 6095
16 3117 7796
17 9495 6817
18 3597 7704
19 8700 1588
20 4775 4817
21 8483 2075
22 6705 6367
23 7909 8588
24 9878 3036
25 4453 2447
26 3750 4456
27 9315 1004
28 5013 2720
29 8711 2308
30 4117 899
31 7748 5314
32 7349 5715
33 9163 613
34 6116 5340
35 753 854
36 4617 1752
37 5439 5567
38 6773 6870
39 6807 9901
40 3365 5971
41 2755 1273
42 5397 8255
43 1417 1315
44 607 7258
45 6643 2519
46 8288 5605
47 5318 4520
48 6722 4609
49 2447 4671
50 2180 1923
EOF
