NAME: tsp_uniform_n50_c_train_016
TYPE: TSP
DIMENSION: 50
EDGE_WEIGHT_TYPE: EUC_2D
NODE_COORD_SECTION
1 3826 3848
2 4624 7611
3 6733 2595
4 472 669
5 1150 6224
6 7159 1925
7 3738 599
8 1798 2449
9 1265 1339
10 691 4438
11 8929 2864
12 4946 8891
13 7618 9330
14 1297 3302
15 1028 767
16 992 9222
17 2620 7920
18 5142 8683
19 8921 8100
20 4748 7518
21 5425 9218
22 3219 576
23 6489 4546
24 7250 1383
25 9392 845
26 7579 2986
27 2554 9948
28 4276 4379
29 2287 7658
30 6441 8422
31 5267 4201
32 1719 461
33 4199 5419
34 7576 6806
35 286 7240
36 4940 8105
37 9339 103
38 6511 402
39 4566 6109
40 5661 9567
41 2583 4910
42 5886 5475
43 1059 4133
44 4407 624
45 3899 4806
46 6769 8806
47 5602 9807
48 2983 5392
49 4537 8220
50 4083 4017
EOF
