NAME: tsp_uniform_n50_c_train_005
TYPE: TSP
DIMENSION: 50
EDGE_WEIGHT_TYPE: EUC_2D
NODE_COORD_SECTION
1 3197 9748
2 1736 8219
3 1405 5111
4 8270 7228
5 64 6982
6 7625 5660
7 6305 7743
8 1121 6023
9 8680 9509
10 8445 395
11 74 1574
12 417 9870
13 5145 4936
14 7789 444
15 2558 1276
16 1032 5085
17 2766 3166
18 1178 8049
19 2428 2295
20 5340 193
21 5100 7243
22 8668 2270
23 2463 8699
24 2349 7182
25 1064 9198
26 6432 8292
27 1317 5183
28 878 1194
29 7687 2354
30 274 5857
31 8627 8004
32 4139 5698
33 663 9061
34 9672 2495
35 4742 72
36 4286 5686
37 1480 7327
38 2983 9603
39 5778 2266
40 5177 491
41 4681 2182
42 6087 1423
43 1181 270
44 9893 3631
45 1298 2841
46 6510 1285
47 5031 5107
48 2284 1492
49 6012 9446
50 949 7934
EOF
