NAME: tsp_uniform_n50_c_train_004
TYPE: TSP
DIMENSION: 50
EDGE_WEIGHT_TYPE: EUC_2D
NODE_COORD_SECTION
1 3536 8848
2 3881 7433
3 1214 1108
4 5241 8425
5 35 8261
6 2352 7865
7 8878 2111
8 7122 7382
9 609 8170
10 7282 2358
11 6788 8754
12 4689 220
13 1986 5748
14 1514 4459
15 1045 8886
16 5218 9371
17 5309 3274
18 7463 9359
19 525 8829
20 9223 5671
21 5521 9912
22 623 9449
23 428 2541
24 8678 9331
25 3236 7682
26 1672 7397
27 1572 2032
28 3304 6236
29 6181 4262
30 6463 3697
31 1753 3050
32 6686 1957
33 9842 9248
34 5519 5142
35 8696 7465
36 5902 3958
37 3141 4936
38 7490 454
39 559 4140
40 805 9257
41 3437 2576
42 6650 4303
43 8314 8028
44 5385 9980
45 6644 9571
46 5722 5098
47 7553 7835
48 2446 1222
49 1736 8085
50 3633 2551
EOF
