NAME: tsp_uniform_n50_c_train_009
TYPE: TSP
DIMENSION: 50
EDGE_WEIGHT_TYPE: EUC_2D
NODE_COORD_SECTION
1 9528 6412
2 1395 3542
3 2403 369
4 223 3723
5 6860 3520
6 5650 4294
7 7035 4766
8 2764 4713
9 1922 1709
10 3239 6272
11 1538 2226
12 3086 6039
13 7360 4193
14 5905 6741
15 2102 5883
16 6646 4359
17 1475 6319
18 7772 6093
19 5158 9485
20 9055 5492
21 4227 6040
22 1268 7643
23 2526 4874
24 8790 9618
25 963 7483
26 9996 7949
27 5511 6600
28 6259 7592
29 3989 2040
30 3982 6864
31 2800 3795
32 2334 4676
33 7106 1362
34 5212 4860
35 2718 4699
36 8713 3912
37 188 8294
38 3560 3040
39 9044 2546
40 6324 4572
41 275 6419
42 9700 3306
43 4807 8929
44 3246 8289
45 7779 523
46 994 1203
47 4906 5271
48 3675 31
49 2104 4948
50 5557 6199
EOF
