NAME: tsp_uniform_n50_c_train_008
TYPE: TSP
DIMENSION: 50
EDGE_WEIGHT_TYPE: EUC_2D
NODE_COORD_SECTION
1 941 5080
2 11 5381
3 1684 3745
4 4774 2473
5 3609 1333
6 2436 1964
7 6035 5692
8 9807 2675
9 9503 1406
10 5571 4114
11 7044 3997
12 3426 7474
13 2025 5011
14 3725 223
15 1678 7084
16 527 3688
17 9661 7944
18 9517 6368
19 6983 5258
20 5787 7572
21 7680 4896
22 10000 6418
23 6006 5520
24 7882 5098
25 4759 4933
26 5495 920
27 6797 1803
28 8183 6380
29 2909 9816
30 6195 38
31 4102 6359
32 2850 574
33 8633 1985
34 2861 8235
35 5678 3744
36 3134 952
37 7225 7137
38 6645 6833
39 9439 6017
40 6638 7197
41 1311 2463
42 6068 8335
43 6562 4733
44 8557 2978
45 5242 4003
46 8468 7677
47 5026 8836
48 3475 2105
49 2849 2405
50 337 6424
EOF
