NAME: tsp_uniform_n50_c_train_006
TYPE: TSP
DIMENSION: 50
EDGE_WEIGHT_TYPE: EUC_2D
NODE_COORD_SECTION
1 7769 5195
2 727 3870
3 7806 5699
4 3868 7048
5 3272 369
6 4778 3880
7 7507 2806
8 1251 7579
9 1143 8565
10 6161 4147
11 5926 6639
12 3986 9630
13 9476 9815
14 2719 9269
15 1274 8514
16 8155 815
17 3978 6434
18 1189 2432
19 8908 3106
20 2479 9711
21 8311 9330
22 5500 1417
23 2696 2814
24 9680 8116
25 4287 3998
26 1146 5838
27 9894 4960
28 4888 3705
29 1607 2624
30 6259 8538
31 216 345
32 1445 6778
33 6102 6088
34 4300 611
35 831 7574
36 5100 5634
37 3393 2472
38 2660 3940
39 9570 2989
40 4704 240
41 7467 8501
42 4799 9947
43 6768 5732
44 5570 9672
45 8368 9735
46 7592 1719
47 9117 9462
48 7878 7726
49 6602 3817
50 9398 5326
EOF
