NAME: tsp_uniform_n50_c_train_007
TYPE: TSP
DIMENSION: 50
EDGE_WEIGHT_TYPE: EUC_2D
NODE_COORD_SECTION
1 129 6102
2 5026 1233
3 5543 5138
4 5660 3585
5 5685 6848
6 9680 4328
7 5557 9878
8 8801 8243
9 4586 451
10 3350 1856
11 7351 7455
12 6473 7513
13 7989 1244
14 2379 682
15 1674 4332
16 418 2125
17 5060 3287
18 7481 6537
19 2871 4155
20 5439 348
21 1662 5102
22 7989 6558
23 1435 8098
24 6791 4078
25 8584 4723
26 395 8487
27 2679 6486
28 7412 4291
29 9816 5727
30 8353 4573
31 4343 900
32 6675 6673
33 7035 9765
34 9144 6622
35 4099 1845
36 5481 1424
37 2025 3893
38 1927 2482
39 3323 7271
40 4082 7088
41 6614 3386
42 522 277
43 1029 7378
44 280 9994
45 7081 1012
46 6810 5558
47 2613 1445
48 1209 2680
49 2008 9264
50 7559 6304
EOF
