NAME: tsp_uniform_n50_c_train_000
TYPE: TSP
DIMENSION: 50
EDGE_WEIGHT_TYPE: EUC_2D
NODE_COORD_SECTION
1 6174 9734
2 6695 94
3 1638 9761
4 6649 319
5 1207 4019
6 8044 3108
7 8326 9487
8 5296 1938
9 182 4158
10 9415 2861
11 2802 2195
12 4645 7923
13 9106 452
14 4649 4232
15 7667 8594
16 9205 4329
17 9832 4363
18 884 5994
19 2143 1564
20 410 1202
21 3337 9852
22 1350 5964
23 8437 7526
24 913 1066
25 8016 159
26 1869 5144
27 3863 6691
28 2013 7266
29 2078 5345
30 130 2783
31 4050 8213
32 4687 5057
33 6964 8890
34 7652 6774
35 8630 4137
36 9056 4196
37 8318 2559
38 5247 424
39 4258 7839
40 2596 3879
41 7904 1726
42 6221 2222
43 7718 5843
44 6865 164
45 2741 700
46 5483 1128
47 7181 4891
48 4657 3343
49 9541 9942
50 8787 761
EOF
