NAME: cvrp_uniform_n50_loose_train_010-k8
TYPE: CVRP
DIMENSION: 50
EDGE_WEIGHT_TYPE: EUC_2D
CAPACITY: 55
NODE_COORD_SECTION
1 6494 8534
2 5721 6109
3 9150 7555
4 621 1829
5 6811 3753
6 8772 4851
7 4736 1336
8 822 8012
9 1532 84
10 7630 8368
11 7600 7763
12 2331 8574
13 2184 7152
14 6695 2900
15 2419 9370
16 2536 8543
17 5936 6542
18 3733 7317
19 484 7772
20 7926 7231
21 5971 2131
22 1861 4347
23 9349 6546
24 3172 4665
25 1952 6051
26 4022 6303
27 9637 283
28 8024 1872
29 2302 5099
30 4621 5448
31 716 3258
32 984 8317
33 138 374
34 1658 5342
35 5153 165
36 6882 1948
37 754 1582
38 9361 8106
39 1958 2586
40 3012 4270
41 4437 226
42 969 5131
43 1570 8679
44 4713 429
45 4766 4306
46 687 4606
47 5854 8604
48 8618 2948
49 2779 7713
50 9759 5131
DEMAND_SECTION
1 0
2 5
3 3
4 5
5 7
6 8
7 3
8 3
9 10
10 2
11 1
12 2
13 8
14 9
15 1
16 1
17 8
18 9
19 7
20 3
21 5
22 9
23 7
24 1
25 4
26 4
27 3
28 1
29 2
30 8
31 9
32 2
33 5
34 10
35 2
36 9
37 2
38 8
39 3
40 3
41 6
42 3
43 8
44 2
45 4
46 1
47 7
48 8
49 4
50 6
DEPOT_SECTION
1
-1
EOF
