NAME: cvrp_uniform_n50_loose_train_012-k8
TYPE: CVRP
DIMENSION: 50
EDGE_WEIGHT_TYPE: EUC_2D
CAPACITY: 62
NODE_COORD_SECTION
1 9357 6347
2 8293 7852
3 285 5748
4 3530 1735
5 4588 9046
6 1330 2298
7 3360 5333
8 4240 586
9 9356 8532
10 5079 6455
11 7459 2897
12 7765 5932
13 3852 6911
14 6474 8359
15 5834 3395
16 7219 9575
17 8790 3361
18 1623 2761
19 1131 5319
20 5532 4329
21 7792 8625
22 4421 4310
23 3691 8711
24 9690 9679
25 3076 9945
26 3073 7743
27 6302 6837
28 2970 7196
29 2470 1809
30 7952 6959
31 1140 9989
32 8742 7307
33 7206 2837
34 9402 7277
35 3644 5895
36 617 6070
37 1442 1698
38 1088 2241
39 6043 5047
40 5476 8938
41 582 334
42 7648 1501
43 2158 1423
44 1112 1585
45 323 5455
46 3283 6966
47 9547 1514
48 724 6803
49 5885 9973
50 9150 3333
DEMAND_SECTION
1 0
2 8
3 6
4 5
5 10
6 3
7 5
8 5
9 6
10 1
11 6
12 10
13 1
14 9
15 4
16 1
17 3
18 10
19 9
20 7
21 4
22 9
23 4
24 7
25 4
26 3
27 3
28 1
29 8
30 6
31 9
32 1
33 4
34 10
35 1
36 8
37 2
38 4
39 2
40 3
41 10
42 8
43 5
44 2
45 10
46 5
47 3
48 10
49 6
50 9
DEPOT_SECTION
1
-1
EOF
