NAME: cvrp_uniform_n50_loose_train_018-k8
TYPE: CVRP
DIMENSION: 50
EDGE_WEIGHT_TYPE: EUC_2D
CAPACITY: 65
NODE_COORD_SECTION
1 3526 7498
2 2867 3002
3 2011 1745
4 7247 128
5 2355 1027
6 6089 5550
7 1855 2034
8 3734 6651
9 380 7389
10 9617 4137
11 7236 4109
12 7122 4871
13 1101 6313
14 3530 5612
15 6862 2299
16 3480 2008
17 2148 8925
18 8025 327
19 8664 1760
20 2539 8499
21 112 8269
22 3765 3587
23 1796 1026
24 523 1387
25 8638 8187
26 4918 9478
27 442 1350
28 6278 2800
29 6835 1674
30 2485 3994
31 2627 8163
32 7419 5068
33 5330 6728
34 1937 8875
35 5370 1712
36 8728 7888
37 4032 1855
38 5761 5923
39 8941 3474
40 2983 5420
41 4004 9945
42 3421 1832
43 305 3757
44 2340 1195
45 4180 9936
46 802 1030
47 5972 6338
48 5071 4783
49 5453 2182
50 2016 7962
DEMAND_SECTION
1 0
2 6
3 10
4 8
5 6
6 5
7 6
8 3
9 2
10 1
11 3
12 9
13 1
14 2
15 2
16 6
17 10
18 6
19 9
20 7
21 7
22 6
23 7
24 7
25 6
26 4
27 3
28 8
29 9
30 3
31 7
32 9
33 8
34 3
35 2
36 6
37 8
38 9
39 10
40 2
41 3
42 2
43 8
44 10
45 8
46 10
47 1
48 1
49 9
50 4
DEPOT_SECTION
1
-1
EOF
