NAME: ovrptw_uniform_n50_medium_smoke_001-k8
TYPE: CVRP
DIMENSION: 50
EDGE_WEIGHT_TYPE: EUC_2D
CAPACITY: 41
NODE_COORD_SECTION
1 7346 7484
2 4101 4425
3 4867 9285
4 5140 8153
5 6863 7400
6 7296 2928
7 4913 1853
8 1394 1603
9 7627 6252
10 1980 583
11 6255 6671
12 6873 4722
13 8829 1025
14 8399 9004
15 875 4469
16 2047 3726
17 3893 557
18 856 6698
19 2480 4032
20 1605 2252
21 1635 4300
22 8672 8018
23 1022 7456
24 9051 7767
25 5327 2889
26 3210 161
27 3326 3600
28 8461 7804
29 2489 529
30 4230 4446
31 3729 4643
32 5759 2726
33 522 4747
34 8426 8633
35 5046 2463
36 9574 7731
37 2204 1747
38 5991 1754
39 9920 4838
40 7409 2711
41 9590 710
42 4772 8185
43 2626 2068
44 4365 9075
45 518 9841
46 8002 1565
47 3702 1357
48 4122 1800
49 3342 9315
50 5445 570
DEMAND_SECTION
1 0
2 8
3 5
4 8
5 4
6 3
7 4
8 9
9 7
10 7
11 3
12 9
13 9
14 9
15 3
16 6
17 3
18 3
19 1
20 3
21 9
22 2
23 7
24 1
25 3
26 2
27 8
28 1
29 2
30 7
31 9
32 1
33 7
34 3
35 7
36 4
37 3
38 9
39 2
40 8
41 1
42 3
43 9
44 6
45 7
46 2
47 5
48 2
49 5
50 7
DEPOT_SECTION
1
-1
EOF
