NAME: tsp_uniform_n50_a_smoke_001
TYPE: TSP
DIMENSION: 50
EDGE_WEIGHT_TYPE: EUC_2D
NODE_COORD_SECTION
1 5457 7668
2 8135 8932
3 7689 1965
4 523 5812
5 7916 9244
6 4316 6787
7 4939 8590
8 5050 2383
9 5519 4131
10 4842 7763
11 8378 3209
12 1619 787
13 7551 4099
14 2911 5125
15 7153 5072
16 7781 7682
17 6783 1173
18 1444 3348
19 5911 4005
20 5900 9893
21 2381 9529
22 6288 413
23 2489 3516
24 4403 1500
25 6249 6620
26 9484 6697
27 9162 5212
28 7086 3355
29 4556 6557
30 4258 9139
31 8478 7234
32 5668 7858
33 4103 2861
34 9992 2606
35 6212 1686
36 5710 69
37 1831 6892
38 4798 345
39 1250 7557
40 1978 6499
41 2636 1810
42 1607 6815
43 2157 7880
44 6699 9388
45 3983 8412
46 4460 5377
47 2522 4314
48 427 5872
49 2516 5048
50 5781 5492
EOF
