NAME: tsp_uniform_n50_smoke_000
TYPE: TSP
DIMENSION: 50
EDGE_WEIGHT_TYPE: EUC_2D
NODE_COORD_SECTION
1 2410 2272
2 3323 8228
3 3660 6296
4 5173 2167
5 5972 3735
6 5711 1595
7 4041 2357
8 8324 9279
9 7031 9247
10 9576 9582
11 4006 6420
12 3252 7557
13 8032 3875
14 7221 1659
15 7673 6124
16 6863 4025
17 8627 4371
18 1201 4722
19 4997 9583
20 2260 2613
21 6345 8004
22 2804 3412
23 7941 4437
24 8957 1186
25 8622 2843
26 2953 7019
27 4996 916
28 9998 5280
29 1340 1051
30 7988 8719
31 601 5849
32 5579 5898
33 9974 6902
34 1905 2866
35 6591 4065
36 3374 5089
37 5669 9272
38 5567 5109
39 113 2150
40 1598 1629
41 8876 8460
42 1296 5818
43 2169 1124
44 5609 2256
45 2054 3791
46 8898 8451
47 7251 4879
48 8449 5543
49 2606 3041
50 1036 760
EOF
