NAME: tsp_uniform_n50_smoke_001
TYPE: TSP
DIMENSION: 50
EDGE_WEIGHT_TYPE: EUC_2D
NODE_COORD_SECTION
1 1464 2003
2 2151 4230
3 8841 863
4 8047 2909
5 646 7219
6 8479 2960
7 6284 3153
8 1661 4814
9 2858 8268
10 7267 4914
11 5208 3055
12 4007 5897
13 4980 4771
14 8293 6384
15 4968 4546
16 7084 8453
17 5326 2131
18 2839 9270
19 2403 258
20 3916 949
21 1576 2014
22 8888 2758
23 7447 8358
24 2619 3592
25 4410 1817
26 9640 9632
27 9725 383
28 9272 2042
29 3989 8407
30 673 6200
31 6770 3283
32 3468 4687
33 3472 5005
34 1947 9718
35 9895 5367
36 6670 3952
37 3579 9079
38 6003 7967
39 9715 2297
40 9451 1220
41 2808 9394
42 3588 7388
43 5961 2854
44 1685 8064
45 4319 5032
46 2241 2586
47 8708 901
48 5741 7961
49 176 9436
50 6821 124
EOF
