NAME: tsp_uniform_n50_a_smoke_000
TYPE: TSP
DIMENSION: 50
EDGE_WEIGHT_TYPE: EUC_2D
NODE_COORD_SECTION
1 6425 6799
2 4429 3473
3 4166 9381
4 3113 3524
5 7276 3663
6 9407 453
7 2207 4658
8 5289 6658
9 9096 3355
10 3879 6526
11 4247 4881
12 4699 1792
13 4449 1635
14 8705 7945
15 9259 9218
16 9355 8722
17 9991 4829
18 4601 8106
19 112 3705
20 8541 368
21 550 9230
22 7136 1602
23 9572 8116
24 6275 6151
25 1142 6780
26 1383 8118
27 9475 9254
28 190 3151
29 3314 7793
30 2572 9557
31 417 4017
32 422 7421
33 1143 6626
34 8163 3637
35 9292 4763
36 2237 6683
37 8252 5335
38 1 4849
39 5900 9068
40 5756 6015
41 6776 8711
42 6766 4188
43 3467 1155
44 4933 3861
45 2058 6803
46 7780 4064
47 5559 6712
48 3459 1666
49 6661 4129
50 240 7681
EOF
