NAME: tsp_clustered_n50_train_001
TYPE: TSP
DIMENSION: 50
EDGE_WEIGHT_TYPE: EUC_2D
NODE_COORD_SECTION
1 2935 6139
2 8221 2787
3 8211 3539
4 9240 7665
5 960 4346
6 2804 5701
7 4191 6414
8 2835 5893
9 9909 7769
10 8759 1525
11 9716 7243
12 9410 7310
13 8061 1827
14 9182 3718
15 2124 5868
16 2672 5865
17 8854 2317
18 8380 2477
19 7740 1677
20 8754 5598
21 2807 5720
22 8481 6590
23 2266 5790
24 9726 6841
25 2259 4079
26 8450 2993
27 7678 3035
28 9882 6548
29 9157 1668
30 7562 1731
31 8858 3217
32 9119 7965
33 8335 3179
34 1978 5529
35 2184 4612
36 1964 6201
37 8995 6752
38 8264 3082
39 6977 3075
40 8976 3248
41 8066 4146
42 7738 3460
43 8167 8552
44 8462 6761
45 2253 5733
46 8391 2820
47 7433 3245
48 7312 3370
49 2694 6037
50 8301 2899
EOF
