NAME: tsp_clustered_n50_train_016
TYPE: TSP
DIMENSION: 50
EDGE_WEIGHT_TYPE: EUC_2D
NODE_COORD_SECTION
1 6277 6937
2 7363 6161
3 6781 5985
4 6104 6838
5 8121 6492
6 6720 6667
7 5890 6936
8 6156 7257
9 4404 4044
10 6651 7922
11 6612 6716
12 6515 6085
13 5389 1687
14 6046 6552
15 7072 6115
16 7057 6636
17 6780 4878
18 7779 6593
19 6584 6285
20 6817 6828
21 6004 2961
22 6379 7423
23 6339 6545
24 6948 2721
25 7464 7026
26 7649 6071
27 8854 7192
28 5187 2531
29 8221 7255
30 6152 3490
31 6587 6484
32 6828 7685
33 4088 2553
34 5624 5436
35 6718 8328
36 6799 7771
37 6101 7948
38 7203 7366
39 6926 6203
40 5917 2305
41 6273 5558
42 6241 8955
43 6378 6715
44 6828 5945
45 5615 3477
46 5258 3188
47 5300 3206
48 7017 7391
49 6267 5273
50 7496 7615
EOF
