NAME: tsp_clustered_n50_train_004
TYPE: TSP
DIMENSION: 50
EDGE_WEIGHT_TYPE: EUC_2D
NODE_COORD_SECTION
1 7753 1248
2 8054 2222
3 5000 7044
4 1643 5056
5 6209 1576
6 1793 4509
7 4651 5484
8 5153 5676
9 4836 5795
10 3222 5954
11 2080 5896
12 1597 4997
13 5746 6754
14 7357 1729
15 2007 6274
16 8216 2799
17 2136 5778
18 8013 2882
19 4224 6038
20 8494 2923
21 5737 6049
22 2679 6401
23 8631 2730
24 7696 1323
25 2593 6304
26 7309 889
27 5384 5159
28 1932 4172
29 5485 7365
30 2325 6077
31 7154 3520
32 5026 6732
33 4998 2631
34 6943 2201
35 5349 5689
36 5244 4840
37 6646 2262
38 6224 6389
39 1609 4460
40 7558 1071
41 2956 6010
42 6077 6513
43 6378 2993
44 6478 1646
45 1786 5502
46 5772 5349
47 6510 5437
48 1530 6848
49 4707 4586
50 5272 5264
EOF
