NAME: tsp_clustered_n50_train_003
TYPE: TSP
DIMENSION: 50
EDGE_WEIGHT_TYPE: EUC_2D
NODE_COORD_SECTION
1 8284 7065
2 7645 7954
3 6968 4624
4 6198 2207
5 6490 5674
6 6285 2453
7 8468 7856
8 6031 577
9 5289 2106
10 9399 7340
11 4869 2664
12 8641 7774
13 8547 7734
14 5876 5292
15 5585 5329
16 6056 5518
17 5234 2423
18 8344 6554
19 6564 1101
20 6765 2125
21 9011 8887
22 4895 5385
23 6145 5571
24 6856 992
25 6803 2481
26 8897 7138
27 4793 1474
28 5315 1633
29 9230 6890
30 5471 2912
31 8225 7963
32 8003 7044
33 5730 5701
34 5221 5146
35 6645 1860
36 4868 5742
37 9400 6105
38 9695 7700
39 8948 7201
40 6618 5885
41 8403 6733
42 9101 7202
43 6357 5249
44 6942 2156
45 4360 6007
46 6255 3679
47 9978 7396
48 4660 5969
49 6339 1085
50 4735 1484
EOF
