NAME: tsp_clustered_n50_train_008
TYPE: TSP
DIMENSION: 50
EDGE_WEIGHT_TYPE: EUC_2D
NODE_COORD_SECTION
1 8644 9367
2 691 8252
3 1373 7502
4 7410 8670
5 1105 7226
6 825 6919
7 7624 4203
8 1701 7205
9 2402 6353
10 7671 5486
11 8281 8887
12 6508 4410
13 1932 7800
14 896 8110
15 9086 8433
16 1530 7338
17 7594 8280
18 8161 4077
19 9598 4312
20 1614 7810
21 7926 3835
22 8089 8640
23 7930 9678
24 9078 5158
25 6090 5080
26 7669 7608
27 7474 3290
28 9728 9043
29 8518 5668
30 7757 3968
31 7371 4375
32 215 7976
33 7867 8294
34 7656 5212
35 8372 8961
36 7074 4329
37 8503 8288
38 1148 6051
39 7915 8636
40 6990 4686
41 7486 4566
42 5897 4322
43 794 6816
44 1225 7350
45 776 7015
46 69 8318
47 8526 9409
48 8446 9126
49 7041 4719
50 7505 4805
EOF
