NAME: tsp_clustered_n50_train_019
TYPE: TSP
DIMENSION: 50
EDGE_WEIGHT_TYPE: EUC_2D
NODE_COORD_SECTION
1 5193 1227
2 3359 7238
3 5512 1267
4 2962 1580
5 2305 4675
6 2728 3640
7 2618 5153
8 3996 6782
9 2391 4845
10 3059 7162
11 3455 8627
12 2972 3982
13 4658 1962
14 3893 1753
15 2346 7293
16 4710 1826
17 3164 5302
18 3804 8442
19 1569 4599
20 1901 3736
21 3299 4355
22 3246 2582
23 4240 3590
24 5116 622
25 3553 7929
26 3264 6499
27 3828 7462
28 5354 624
29 4369 2093
30 2677 7648
31 3727 7779
32 3945 4313
33 3447 1952
34 2774 8001
35 4899 2017
36 3055 3789
37 3513 832
38 3863 7004
39 5148 2245
40 2254 3685
41 4189 7663
42 4046 5115
43 4013 2052
44 3595 6384
45 3575 4453
46 3714 6899
47 4664 1067
48 4208 1617
49 3779 6098
50 2498 5741
EOF
