NAME: tsp_clustered_n50_train_009
TYPE: TSP
DIMENSION: 50
EDGE_WEIGHT_TYPE: EUC_2D
NODE_COORD_SECTION
1 4099 6771
2 3306 4322
3 2999 6755
4 3095 6024
5 2782 6433
6 2713 3212
7 2723 5273
8 2256 4324
9 2872 4685
10 2780 4190
11 4081 7463
12 3005 5077
13 1549 4792
14 1218 4024
15 3638 6054
16 1345 4730
17 1026 4891
18 3661 4314
19 1578 4010
20 1820 3891
21 2862 4768
22 3204 4712
23 2398 3852
24 3516 7785
25 3340 7852
26 2632 7445
27 3329 7937
28 2342 5474
29 3117 6492
30 3988 3967
31 4222 8332
32 1752 3331
33 1990 5174
34 3514 6985
35 3608 5317
36 3562 5030
37 3622 6484
38 2305 4304
39 3321 8512
40 2524 4287
41 4735 5893
42 4140 7636
43 4254 6224
44 1414 4663
45 4136 7577
46 3678 6458
47 2873 4349
48 3953 7846
49 2790 6020
50 3366 7235
EOF
