NAME: tsp_clustered_n50_train_015
TYPE: TSP
DIMENSION: 50
EDGE_WEIGHT_TYPE: EUC_2D
NODE_COORD_SECTION
1 7385 8028
2 8798 6704
3 1070 8312
4 9369 7886
5 4478 6590
6 3605 7751
7 8461 7561
8 2327 6923
9 9386 6834
10 3520 6917
11 3879 8064
12 7676 7200
13 2788 6574
14 3074 7084
15 8560 7088
16 4392 7633
17 8880 8328
18 3454 6273
19 8368 7302
20 4151 6332
21 9294 6906
22 3717 6378
23 3241 8847
24 3998 7309
25 4230 6823
26 2993 7058
27 7915 7615
28 2296 7380
29 2615 6895
30 3656 7292
31 3127 6823
32 1594 8405
33 2674 8122
34 3662 6368
35 4072 8414
36 4613 7350
37 3785 9019
38 5421 6175
39 2777 6981
40 3714 6582
41 8445 6281
42 3757 6202
43 3574 8381
44 4379 8342
45 3079 6318
46 7097 7692
47 2871 7073
48 8839 8075
49 3202 6724
50 3076 7881
EOF
