NAME: tsp_clustered_n50_train_011
TYPE: TSP
DIMENSION: 50
EDGE_WEIGHT_TYPE: EUC_2D
NODE_COORD_SECTION
1 3369 3908
2 4325 9420
3 3827 1763
4 4208 1958
5 2733 5488
6 4098 1091
7 4333 8490
8 2577 2080
9 2142 6420
10 892 5877
11 4645 964
12 5791 8040
13 4007 2776
14 4100 7806
15 3382 2117
16 2210 6496
17 1307 6067
18 2989 1914
19 2102 6386
20 5348 8019
21 1776 6420
22 3101 1630
23 5226 8636
24 3393 7290
25 1512 6310
26 4838 8088
27 3328 812
28 2306 7665
29 5995 7097
30 2488 5347
31 978 5884
32 2879 6919
33 3046 3170
34 2580 5137
35 4999 8185
36 2025 5876
37 4501 2038
38 3222 7670
39 5129 7775
40 4216 3763
41 6534 7994
42 2691 2371
43 6693 6971
44 3396 7172
45 3378 5629
46 3036 2073
47 3439 2707
48 5399 8694
49 4021 2297
50 2821 6300
EOF
