NAME: tsp_clustered_n50_train_000
TYPE: TSP
DIMENSION: 50
EDGE_WEIGHT_TYPE: EUC_2D
NODE_COORD_SECTION
1 2492 1527
2 2845 2990
3 3090 4823
4 3952 2914
5 2905 4072
6 5090 4793
7 2040 3355
8 3295 2421
9 3609 7709
10 2394 1644
11 3746 7611
12 4687 8280
13 3261 1989
14 2979 909
15 3185 4611
16 3283 7160
17 2708 7325
18 2881 1606
19 2639 9291
20 3971 7390
21 3499 7388
22 4178 8384
23 3181 836
24 3918 4070
25 2898 1735
26 3811 8877
27 2429 3211
28 2174 2628
29 2875 4945
30 4701 4995
31 2398 1252
32 3418 2221
33 2446 2925
34 3850 4670
35 2538 2169
36 3926 7741
37 3880 7893
38 4895 4826
39 3890 4962
40 4443 4199
41 4285 8561
42 1585 1787
43 4591 857
44 2326 2560
45 3168 4962
46 3091 4431
47 3400 2013
48 4885 8235
49 4064 3741
50 4086 7701
EOF
