NAME: tsp_clustered_n50_train_012
TYPE: TSP
DIMENSION: 50
EDGE_WEIGHT_TYPE: EUC_2D
NODE_COORD_SECTION
1 8501 6795
2 9001 4674
3 5642 3543
4 1766 4788
5 9397 4808
6 5553 865
7 1457 3904
8 1146 3981
9 1483 3627
10 6939 1232
11 5525 2292
12 1339 4973
13 1062 4530
14 1066 4320
15 5881 1865
16 1677 4840
17 6563 2021
18 6574 2320
19 945 4213
20 8380 5311
21 5892 2277
22 7964 6272
23 1828 3822
24 8652 5965
25 1688 4519
26 6199 1817
27 6741 2048
28 9004 6822
29 8746 6475
30 77 3417
31 7161 2622
32 1570 4948
33 8885 5025
34 2631 3950
35 6641 1027
36 6323 2045
37 8229 7307
38 6547 2048
39 7083 2025
40 5681 310
41 2415 3968
42 6256 1713
43 6061 2401
44 5980 2236
45 5773 2077
46 8603 7069
47 545 2188
48 2097 4778
49 7051 1233
50 8632 6943
EOF
