NAME: tsp_clustered_n50_train_018
TYPE: TSP
DIMENSION: 50
EDGE_WEIGHT_TYPE: EUC_2D
NODE_COORD_SECTION
1 6097 6680
2 5762 7892
3 955 1592
4 6228 6092
5 5885 8026
6 4791 7303
7 6873 7706
8 8079 8127
9 4843 6508
10 6414 8342
11 6358 8526
12 6296 7294
13 7524 9073
14 2382 2493
15 6488 8126
16 5432 8702
17 6261 6979
18 276 2166
19 6422 9514
20 1462 1782
21 6357 6971
22 2590 3180
23 2379 2112
24 6039 6387
25 1542 1762
26 5345 7724
27 5631 6909
28 1260 2870
29 1299 3731
30 6661 8749
31 2211 1478
32 1049 2079
33 6591 7842
34 1262 2104
35 6822 9340
36 223 2461
37 1602 1840
38 5197 8038
39 2177 2135
40 5521 8779
41 6696 9789
42 7043 8457
43 4662 7678
44 6332 8005
45 7073 6255
46 6101 8585
47 7497 8428
48 6745 8601
49 2762 2910
50 6360 6941
EOF
