NAME: tsp_clustered_n50_train_002
TYPE: TSP
DIMENSION: 50
EDGE_WEIGHT_TYPE: EUC_2D
NODE_COORD_SECTION
1 4883 4433
2 4578 2473
3 3393 7331
4 7420 4306
5 2978 6494
6 7438 3576
7 4812 2893
8 3683 7994
9 5669 1961
10 5018 2220
11 2370 8017
12 3647 3086
13 3046 7580
14 4525 3501
15 3228 7508
16 7535 2608
17 5495 2669
18 5509 2097
19 6761 2494
20 3839 8079
21 3526 6118
22 5627 3413
23 7936 3608
24 4850 2928
25 8433 4865
26 3632 2090
27 4257 5769
28 3869 2057
29 6475 2594
30 5442 2632
31 4192 3385
32 2955 7339
33 6107 3552
34 6872 4554
35 2721 7431
36 4170 7491
37 7845 4532
38 2659 7639
39 4899 2633
40 7472 4768
41 5229 2783
42 2643 7002
43 4852 3607
44 7287 3765
45 5250 2192
46 2802 7300
47 6099 1494
48 3092 8249
49 2969 7599
50 3408 7540
EOF
