NAME: tsp_clustered_n50_train_014
TYPE: TSP
DIMENSION: 50
EDGE_WEIGHT_TYPE: EUC_2D
NODE_COORD_SECTION
1 5162 4904
2 4293 5242
3 3152 3962
4 7454 7441
5 7157 8884
6 3833 5126
7 4276 5427
8 5206 6133
9 7662 9044
10 8063 8366
11 4827 5963
12 5442 4232
13 5066 4741
14 3552 5802
15 6231 8181
16 6216 7646
17 5010 5724
18 7368 6040
19 2545 6416
20 6649 7140
21 6870 7624
22 4818 6551
23 7668 6493
24 3762 5757
25 2566 5883
26 3522 6001
27 3513 5403
28 5401 4177
29 6045 8303
30 3759 6301
31 3169 3909
32 4560 5904
33 6641 7800
34 2964 5773
35 5968 8898
36 3542 4038
37 6604 8455
38 3850 4374
39 6836 8457
40 6662 9299
41 6006 4439
42 7071 8033
43 6671 7242
44 6938 7830
45 7460 7375
46 5029 3099
47 4115 4668
48 6568 8288
49 4130 5386
50 6946 7349
EOF
