NAME: tsp_clustered_n50_train_007
TYPE: TSP
DIMENSION: 50
EDGE_WEIGHT_TYPE: EUC_2D
NODE_COORD_SECTION
1 4622 5033
2 6089 5721
3 4887 5486
4 5331 3614
5 8636 6431
6 7525 8218
7 5396 4622
8 5222 5705
9 8273 6577
10 7845 6752
11 4683 4484
12 6382 9231
13 4938 4512
14 4173 5676
15 6889 6866
16 5548 4377
17 4445 4280
18 6748 9270
19 7819 9466
20 4585 3808
21 4884 5413
22 7548 8725
23 6938 6794
24 7471 6754
25 7296 8034
26 6723 7205
27 7865 6583
28 7360 7731
29 8120 5622
30 8669 8928
31 7615 8482
32 7981 6581
33 6980 7196
34 5189 5072
35 8112 6896
36 6339 7633
37 6450 4846
38 8502 5895
39 6214 9640
40 7501 8432
41 6134 7978
42 5331 3389
43 5973 5861
44 7581 7244
45 7205 9565
46 6481 8247
47 5437 3571
48 6952 8546
49 7986 7433
50 7276 7758
EOF
