NAME: tsp_clustered_n50_train_006
TYPE: TSP
DIMENSION: 50
EDGE_WEIGHT_TYPE: EUC_2D
NODE_COORD_SECTION
1 8821 9210
2 6079 4057
3 4120 5399
4 4771 5598
5 4500 4845
6 8901 8507
7 6007 3732
8 5356 6291
9 8536 7622
10 8243 7851
11 4950 2781
12 4957 5078
13 7908 9249
14 8642 8622
15 5162 5001
16 5760 5328
17 9803 8669
18 8003 7268
19 3587 5201
20 2812 4060
21 5998 3933
22 7372 7944
23 2111 4986
24 7821 7139
25 9332 7790
26 6026 3690
27 4123 5644
28 5359 5328
29 4468 3625
30 7335 9261
31 5395 3582
32 6780 8108
33 8534 7440
34 5287 3896
35 4576 5754
36 7442 7883
37 5698 3628
38 8437 8337
39 5955 2979
40 2764 4623
41 6182 3515
42 4496 5315
43 7829 8557
44 5490 2116
45 4899 4488
46 4953 3321
47 5571 5326
48 8568 6846
49 4293 3601
50 5029 4963
EOF
