NAME: tsp_clustered_n50_train_010
TYPE: TSP
DIMENSION: 50
EDGE_WEIGHT_TYPE: EUC_2D
NODE_COORD_SECTION
1 3030 3292
2 7578 4224
3 3680 3974
4 4122 3096
5 3404 4494
6 7346 4884
7 3678 1716
8 2192 3080
9 6189 6915
10 7384 5726
11 2628 2610
12 7371 4346
13 5595 7671
14 6571 3984
15 3592 3028
16 4852 6214
17 4987 7793
18 2944 3157
19 5131 5754
20 5089 6090
21 3811 7666
22 8596 4224
23 3015 2869
24 4829 7893
25 5002 6015
26 2673 1891
27 4648 6609
28 2946 2720
29 2635 3630
30 7730 5455
31 7673 5311
32 5210 5415
33 7794 4911
34 5206 7574
35 2924 3613
36 5037 7262
37 2531 2676
38 3681 4184
39 4704 6970
40 7344 4470
41 7853 5528
42 3201 3522
43 4162 7291
44 4483 6535
45 4682 7815
46 7890 4817
47 2788 4195
48 8150 5433
49 4079 3400
50 2714 3956
EOF
