NAME: tsp_clustered_n50_train_013
TYPE: TSP
DIMENSION: 50
EDGE_WEIGHT_TYPE: EUC_2D
NODE_COORD_SECTION
1 8161 3880
2 6953 4844
3 6862 2663
4 3631 3316
5 3974 7774
6 5149 7024
7 6932 4589
8 7614 4821
9 3171 2181
10 3436 2775
11 4530 7537
12 2761 2777
13 2437 2579
14 3098 6898
15 6226 3996
16 3170 2353
17 7138 4916
18 7274 4047
19 3834 7452
20 3845 3714
21 7327 4754
22 4285 3510
23 2822 3103
24 8053 5099
25 2855 2697
26 7138 4372
27 4002 2416
28 7398 4353
29 5237 7721
30 4495 2858
31 3280 2263
32 4342 7878
33 4496 3021
34 4867 8880
35 7397 5681
36 4385 7443
37 3525 7787
38 7769 4082
39 4448 7368
40 4339 7580
41 4528 6979
42 4146 7731
43 4443 2841
44 3810 6528
45 4791 2404
46 4859 5696
47 5161 7990
48 3772 3124
49 7184 5286
50 6261 5467
EOF
