NAME: tsp_clustered_n50_train_017
TYPE: TSP
DIMENSION: 50
EDGE_WEIGHT_TYPE: EUC_2D
NODE_COORD_SECTION
1 5826 6217
2 6120 1239
3 6609 24
4 6939 1315
5 6936 1978
6 7253 2414
7 6927 2079
8 7817 720
9 6684 2022
10 6405 1347
11 7142 1832
12 7356 944
13 4228 6686
14 7119 2688
15 6307 1098
16 7488 1136
17 4155 6110
18 4316 7290
19 6248 1714
20 6737 1490
21 6702 694
22 6976 1473
23 4266 6700
24 3332 4874
25 6382 975
26 6008 2336
27 7369 1706
28 6399 848
29 5568 1957
30 6980 1592
31 5987 1181
32 6294 529
33 3878 6441
34 4569 6794
35 6681 1857
36 7351 1611
37 6628 1884
38 6271 1180
39 6366 1704
40 6500 740
41 5900 678
42 6594 1150
43 5613 1085
44 6462 51
45 4577 6319
46 6244 774
47 3853 6618
48 6308 1262
49 7216 2649
50 7156 1734
EOF
