NAME: tsp_clustered_n50_train_005
TYPE: TSP
DIMENSION: 50
EDGE_WEIGHT_TYPE: EUC_2D
NODE_COORD_SECTION
1 4895 6247
2 6325 5073
3 3162 4933
4 4362 5552
5 2896 6144
6 5716 5066
7 4283 5173
8 5444 4787
9 4824 4594
10 5432 5307
11 3275 5677
12 3398 6992
13 1983 5289
14 5373 4864
15 2240 6516
16 4666 4657
17 4153 4523
18 4627 5779
19 5041 5367
20 3921 4558
21 5024 5732
22 2478 7650
23 5325 4729
24 2016 5743
25 2229 5945
26 2688 7969
27 3120 6342
28 5138 5689
29 5544 5990
30 2742 5197
31 3934 4933
32 4309 6463
33 2531 7128
34 4582 5654
35 3347 5017
36 1928 6557
37 2323 6128
38 2522 7518
39 4424 5598
40 4046 4691
41 4896 4916
42 5824 5561
43 2603 5431
44 5443 4960
45 4813 4979
46 6012 5364
47 5591 4651
48 1862 5915
49 1879 5568
50 2751 5680
EOF
