NAME: tsp_n100_uniform_smoke_000
TYPE: TSP
DIMENSION: 100
EDGE_WEIGHT_TYPE: EUC_2D
NODE_COORD_SECTION
1 7869 5279
2 8931 5531
3 4274 5512
4 3345 201
5 7070 6167
6 4202 1987
7 4466 5743
8 594 743
9 8489 4535
10 9534 435
11 3908 762
12 8840 1714
13 9585 3479
14 200 8083
15 1171 4177
16 723 1534
17 7433 4945
18 5865 6316
19 3185 7987
20 2913 2860
21 8131 6589
22 6370 4566
23 5563 9706
24 3560 7686
25 7066 2466
26 2945 9859
27 5328 564
28 4567 1753
29 6083 3352
30 4109 5204
31 2433 9702
32 2720 9926
33 3861 1602
34 7683 9572
35 3172 5650
36 3485 9893
37 7171 6059
38 8075 5120
39 9724 6974
40 8958 4540
41 5721 2321
42 4570 551
43 7224 9097
44 6425 213
45 3930 7729
46 7731 8046
47 1601 4190
48 3533 4429
49 3195 1218
50 6288 8548
51 5096 3763
52 1770 1289
53 7712 5027
54 7746 2899
55 6333 1684
56 4419 8907
57 6227 6999
58 5450 6569
59 3738 784
60 6863 9522
61 9423 5073
62 308 3418
63 3885 6962
64 8385 9816
65 6216 5778
66 5225 8491
67 2171 677
68 4653 674
69 7185 8977
70 7665 1737
71 3197 3882
72 1506 4984
73 6815 2625
74 7059 1963
75 5058 1045
76 4742 2847
77 9355 2624
78 8458 7327
79 191 6684
80 3440 9444
81 9125 4499
82 5352 7825
83 2028 7197
84 34 7734
85 4714 3974
86 8138 4359
87 9419 7379
88 6473 4040
89 3357 982
90 9383 7999
91 5029 58
92 9023 5975
93 4817 2564
94 7016 9309
95 5915 8864
96 2585 7357
97 6055 3227
98 6961 1227
99 8821 6919
100 1098 1498
EOF
