NAME: tsp_n100_uniform_smoke_001
TYPE: TSP
DIMENSION: 100
EDGE_WEIGHT_TYPE: EUC_2D
NODE_COORD_SECTION
1 5199 8840
2 6451 7556
3 2653 1468
4 9314 4020
5 5308 7462
6 8159 5853
7 1097 9040
8 1215 865
9 2226 8372
10 8143 5948
11 3188 4045
12 9417 7004
13 404 4441
14 5515 22
15 4684 912
16 1395 6313
17 9206 7106
18 8999 3814
19 1074 1421
20 2734 252
21 5843 4390
22 9149 7328
23 3257 7694
24 8110 253
25 2815 8694
26 4009 4150
27 4919 4063
28 2224 5882
29 3709 9809
30 3794 2723
31 2180 7828
32 8865 6625
33 3664 5667
34 905 3109
35 9316 8632
36 4160 6739
37 2490 7916
38 3746 6914
39 7726 5079
40 9002 189
41 7801 4252
42 8315 4116
43 9734 9312
44 3464 6867
45 6460 5469
46 231 9118
47 2437 6506
48 4155 3493
49 3244 5302
50 3809 5736
51 5065 9776
52 4577 1727
53 7059 2423
54 1814 3900
55 4917 1301
56 9304 150
57 3217 5698
58 676 9162
59 3252 3596
60 3074 6500
61 6743 2854
62 2031 156
63 8385 193
64 9413 4708
65 2479 9716
66 5785 1246
67 4039 1024
68 7546 4782
69 2565 2750
70 9855 6136
71 989 9978
72 8074 4681
73 4646 2730
74 4850 7057
75 4938 2566
76 679 4214
77 265 7570
78 2123 6056
79 2976 7055
80 9598 3718
81 7948 1078
82 8998 3201
83 8932 2609
84 82 8235
85 9612 165
86 5377 5968
87 321 6417
88 1190 9746
89 3084 3017
90 1845 3798
91 6026 74
92 2102 9610
93 6760 8273
94 6692 3397
95 6271 2419
96 8339 3384
97 9717 421
98 8353 5106
99 2139 7572
100 8380 3842
EOF
