NAME: cvrp_uniform_n50_tight_train_002-k8
TYPE: CVRP
DIMENSION: 50
EDGE_WEIGHT_TYPE: EUC_2D
CAPACITY: 38
NODE_COORD_SECTION
1 4003 3551
2 2947 4862
3 6644 8283
4 5488 2743
5 1689 687
6 2663 3541
7 5882 8158
8 5954 352
9 8111 4772
10 2444 8814
11 5528 6440
12 3773 4943
13 7719 4992
14 8834 3291
15 2396 4762
16 2858 1525
17 96 1781
18 5881 1758
19 1379 5991
20 5687 8925
21 8063 5375
22 4574 7020
23 9553 5503
24 3191 8498
25 3213 1862
26 7313 4938
27 8708 9704
28 4452 9313
29 7165 9521
30 9639 2159
31 60 8063
32 9215 1859
33 3380 6652
34 1962 2653
35 5068 8751
36 9064 9405
37 961 9813
38 2325 3001
39 9089 3073
40 8170 3700
41 4199 4180
42 7101 7287
43 5996 6204
44 5249 3539
45 3775 5085
46 5680 745
47 3005 3748
48 8049 7092
49 5368 9768
50 6164 2737
DEMAND_SECTION
1 0
2 4
3 2
4 1
5 4
6 6
7 8
8 4
9 8
10 3
11 7
12 7
13 2
14 1
15 6
16 9
17 10
18 5
19 4
20 10
21 7
22 10
23 7
24 3
25 10
26 5
27 7
28 9
29 1
30 8
31 4
32 3
33 7
34 6
35 2
36 10
37 10
38 5
39 2
40 2
41 4
42 10
43 6
44 6
45 7
46 4
47 10
48 4
49 1
50 1
DEPOT_SECTION
1
-1
EOF
