NAME: cvrp_uniform_n50_tight_train_016-k8
TYPE: CVRP
DIMENSION: 50
EDGE_WEIGHT_TYPE: EUC_2D
CAPACITY: 38
NODE_COORD_SECTION
1 9552 9344
2 4141 4519
3 4227 5129
4 2114 9165
5 917 8109
6 9539 5630
7 6258 5788
8 3417 7380
9 201 428
10 5048 2840
11 1107 4221
12 7388 9573
13 9277 4008
14 424 6644
15 7382 4895
16 8370 459
17 511 4577
18 3634 7951
19 6260 3207
20 3027 8805
21 778 8978
22 7573 8495
23 9044 5379
24 9594 5111
25 7151 1837
26 6191 7967
27 8757 3144
28 5508 1268
29 5365 1352
30 4341 4884
31 7143 7503
32 1909 27
33 694 7007
34 97 5522
35 7869 4072
36 8250 5469
37 8045 8072
38 5727 7819
39 512 300
40 6853 1871
41 9436 508
42 3874 6205
43 4223 9638
44 9699 5864
45 4362 305
46 5500 5711
47 4482 2771
48 358 6276
49 1143 1039
50 3994 8814
DEMAND_SECTION
1 0
2 10
3 4
4 10
5 4
6 3
7 1
8 10
9 9
10 8
11 6
12 10
13 5
14 1
15 2
16 1
17 10
18 8
19 1
20 10
21 7
22 8
23 4
24 1
25 6
26 3
27 9
28 7
29 6
30 1
31 1
32 8
33 5
34 1
35 1
36 2
37 7
38 10
39 9
40 9
41 9
42 5
43 6
44 4
45 2
46 7
47 4
48 1
49 2
50 10
DEPOT_SECTION
1
-1
EOF
