NAME: tsp_clustered_n50_smoke_000
TYPE: TSP
DIMENSION: 50
EDGE_WEIGHT_TYPE: EUC_2D
NODE_COORD_SECTION
1 8054 6298
2 8439 6277
3 1201 4671
4 7406 8517
5 8778 5398
6 6820 7816
7 6905 8604
8 7133 8676
9 2130 5134
10 1832 3161
11 6199 8475
12 8793 6426
13 6968 9624
14 9939 6253
15 9010 4624
16 9079 4733
17 1947 5451
18 6807 8938
19 6533 8817
20 6253 9623
21 8752 5976
22 858 4968
23 8937 6165
24 1761 5214
25 9143 3841
26 1909 4024
27 536 4999
28 8637 6071
29 6067 8178
30 860 4663
31 2157 4299
32 8924 5130
33 6857 8654
34 8705 6205
35 8676 6306
36 6807 9251
37 6272 9071
38 7687 5230
39 3119 5778
40 8872 5586
41 7091 8775
42 6534 7640
43 6830 7556
44 6716 7695
45 1853 5363
46 6115 8324
47 6203 8739
48 6724 9448
49 8755 6806
50 8018 7541
EOF
