NAME: tsp_clustered_n50_smoke_001
TYPE: TSP
DIMENSION: 50
EDGE_WEIGHT_TYPE: EUC_2D
NODE_COORD_SECTION
1 5779 8329
2 6653 6840
3 6280 7317
4 8525 8354
5 7269 7087
6 6264 6925
7 8494 8333
8 6218 8971
9 6238 6228
10 7262 8860
11 6631 8133
12 6199 5711
13 6607 9365
14 7105 5282
15 6491 6691
16 8839 8312
17 7375 7196
18 5331 6606
19 6868 6544
20 5306 8657
21 6370 7963
22 6493 9196
23 5725 6987
24 6037 8446
25 6992 6283
26 7338 9647
27 5805 7300
28 8634 8595
29 6807 6042
30 5856 6362
31 6316 7900
32 8905 8637
33 6009 8432
34 8076 9173
35 7309 8204
36 6289 8175
37 6544 9167
38 8328 8695
39 6037 8161
40 8246 7393
41 7762 7945
42 6276 6762
43 9024 8301
44 8138 9056
45 8909 7572
46 6682 7642
47 5947 8243
48 6771 7848
49 6923 8220
50 9317 8160
EOF
