NAME: cvrp_n50_uniform_smoke_001-k10
TYPE: CVRP
DIMENSION: 50
EDGE_WEIGHT_TYPE: EUC_2D
CAPACITY: 40
NODE_COORD_SECTION
1 7393 9789
2 6138 5482
3 1043 8911
4 6778 5904
5 8309 8077
6 490 9183
7 2054 9340
8 1022 4101
9 9611 7355
10 6089 6395
11 4027 7834
12 483 9519
13 7884 6741
14 4708 3574
15 4208 2580
16 906 8359
17 3841 3888
18 6286 1310
19 9862 780
20 835 1309
21 3605 9886
22 780 2462
23 1862 7616
24 3558 2916
25 6724 5636
26 9505 1006
27 2098 1068
28 1946 437
29 1097 2306
30 3054 9319
31 3347 8315
32 4937 1937
33 7269 9273
34 2291 4165
35 1736 4736
36 3009 2055
37 6242 2828
38 1880 8420
39 9980 2162
40 2657 9521
41 3739 8311
42 7573 6590
43 167 6056
44 4207 8278
45 3587 7545
46 3862 925
47 4830 5779
48 8665 100
49 9820 3362
50 351 6124
DEMAND_SECTION
1 0
2 8
3 10
4 8
5 8
6 6
7 6
8 3
9 5
10 8
11 9
12 7
13 3
14 3
15 3
16 4
17 4
18 9
19 10
20 7
21 2
22 9
23 3
24 6
25 1
26 8
27 5
28 3
29 3
30 3
31 1
32 1
33 2
34 6
35 7
36 9
37 8
38 9
39 4
40 5
41 6
42 4
43 8
44 7
45 3
46 5
47 6
48 2
49 7
50 7
DEPOT_SECTION
1
-1
EOF
