NAME: cvrp_n50_uniform_smoke_000-k10
TYPE: CVRP
DIMENSION: 50
EDGE_WEIGHT_TYPE: EUC_2D
CAPACITY: 44
NODE_COORD_SECTION
1 4993 4058
2 8443 2760
3 6123 3242
4 8234 2970
5 3469 4386
6 8862 6243
7 9822 7127
8 8696 7470
9 1631 4993
10 7107 2354
11 8529 7015
12 2938 811
13 6032 3612
14 3598 2016
15 8555 4581
16 6439 6294
17 4292 4843
18 9133 9186
19 9860 1442
20 3461 1687
21 8801 5872
22 9015 1594
23 4105 2991
24 4515 4991
25 9392 4949
26 963 3728
27 2474 5239
28 3574 5225
29 3032 8905
30 7822 6121
31 9164 5005
32 8561 7763
33 1180 827
34 6603 7603
35 9117 8087
36 7125 3575
37 6843 7093
38 2056 5476
39 5255 6573
40 7332 3755
41 1625 3453
42 4773 1966
43 9709 6546
44 5966 3851
45 141 2669
46 4757 5249
47 9257 4460
48 8769 1811
49 230 3467
50 794 1242
DEMAND_SECTION
1 0
2 10
3 9
4 6
5 5
6 5
7 2
8 6
9 9
10 1
11 2
12 5
13 3
14 1
15 7
16 10
17 10
18 2
19 10
20 4
21 4
22 10
23 10
24 6
25 6
26 4
27 10
28 2
29 1
30 7
31 1
32 6
33 8
34 8
35 5
36 7
37 4
38 2
39 8
40 10
41 9
42 10
43 4
44 10
45 10
46 9
47 6
48 7
49 2
50 3
DEPOT_SECTION
1
-1
EOF
