NAME: tsp_n200_uniform_train_012
TYPE: TSP
DIMENSION: 200
EDGE_WEIGHT_TYPE: EUC_2D
NODE_COORD_SECTION
1 2976 3443
2 7292 7489
3 3827 1278
4 3130 2909
5 8895 9623
6 8595 8196
7 7955 416
8 6738 9803
9 127 6196
10 6413 3865
11 3435 7001
12 3369 5799
13 8807 9720
14 5724 4777
15 1914 9698
16 7980 1012
17 1530 9980
18 5665 1411
19 2443 9181
20 9890 7843
21 691 8571
22 8477 7059
23 2657 1730
24 601 4687
25 6983 8498
26 9390 9039
27 6214 4442
28 5802 824
29 7500 87
30 6546 2273
31 4588 9792
32 6705 832
33 6712 5786
34 2581 5841
35 1461 2875
36 589 1143
37 9574 4000
38 9488 1215
39 3104 6485
40 2590 4952
41 7280 6890
42 5537 3961
43 3324 893
44 6136 8799
45 4603 578
46 933 2282
47 4699 921
48 3680 5778
49 4812 2000
50 41 6325
51 1065 1245
52 7832 6548
53 1436 3607
54 430 5365
55 6995 6079
56 2822 5679
57 6313 306
58 6972 1272
59 7870 9860
60 6168 9083
61 6863 8693
62 4740 1864
63 1290 9987
64 1503 8383
65 7342 4966
66 876 5005
67 9708 8340
68 5437 2377
69 1531 9039
70 2010 6264
71 5224 9595
72 9810 4498
73 8386 1121
74 4710 798
75 2412 8980
76 1685 3648
77 7361 9738
78 4317 9909
79 4964 369
80 4396 9119
81 7875 2585
82 2307 6108
83 9682 4632
84 5220 2946
85 867 8458
86 9078 710
87 3943 3413
88 331 8789
89 1665 8856
90 7136 2520
91 4427 6373
92 9937 922
93 4824 9233
94 5087 3
95 6041 779
96 6860 3076
97 4053 4444
98 3436 5205
99 1517 3282
100 3155 2162
101 8903 9098
102 9599 2074
103 9287 2546
104 2679 6220
105 6429 8780
106 3592 1553
107 2226 6122
108 6613 4095
109 3901 8242
110 6087 446
111 4085 6992
112 5376 1218
113 8406 9679
114 1339 4373
115 2541 9669
116 5961 9648
117 6777 11
118 9767 5916
119 8917 4998
120 5237 242
121 90 1232
122 3137 8714
123 7971 1623
124 4220 5160
125 5795 1131
126 3560 1550
127 990 631
128 5999 9860
129 2290 5806
130 2780 337
131 2376 5766
132 1377 9936
133 629 4069
134 8409 2025
135 6714 9424
136 941 8923
137 793 6993
138 2293 8413
139 1447 4765
140 6654 7935
141 8597 199
142 5703 8808
143 4286 5308
144 283 383
145 9466 7686
146 29 3667
147 9111 7229
148 1127 6892
149 2884 1070
150 7828 5880
151 8321 5404
152 7810 4007
153 7770 8529
154 4555 160
155 5859 2578
156 9227 7132
157 3189 2230
158 7885 4065
159 3852 6833
160 1705 6377
161 956 2400
162 1957 1256
163 2057 504
164 4888 1260
165 5255 5956
166 3235 2462
167 4115 5568
168 1871 2501
169 9459 4540
170 4458 9324
171 7507 2068
172 9149 9265
173 4664 2238
174 8882 4064
175 1762 3899
176 7513 3615
177 2802 1142
178 3344 9235
179 4903 8154
180 6824 6632
181 8965 4256
182 4315 3117
183 4928 5285
184 6909 1196
185 5266 2665
186 5704 8553
187 5795 3631
188 3548 4012
189 7363 4057
190 3905 4951
191 55 2971
192 102 6384
193 3265 3116
194 870 1774
195 3583 8045
196 1145 2497
197 5235 6499
198 4839 7472
199 1586 1517
200 822 2100
EOF
