NAME: tsp_n200_uniform_train_004
TYPE: TSP
DIMENSION: 200
EDGE_WEIGHT_TYPE: EUC_2D
NODE_COORD_SECTION
1 235 7999
2 8691 8130
3 6469 6817
4 4113 2425
5 4104 2218
6 7939 4401
7 3233 4996
8 4121 9800
9 723 6819
10 1059 8937
11 8267 7622
12 9670 5952
13 6902 8779
14 8722 2305
15 2900 7480
16 4185 2575
17 9640 5264
18 3848 226
19 3866 927
20 4424 2765
21 5154 2537
22 8240 831
23 5291 3046
24 4570 280
25 618 5487
26 3363 7959
27 1798 1578
28 3381 561
29 8979 3260
30 5293 2835
31 628 5518
32 6373 6439
33 5301 2256
34 4808 398
35 7480 4556
36 3521 7729
37 4008 8106
38 6548 3539
39 5961 7397
40 1221 8265
41 4623 865
42 5219 8840
43 6107 8210
44 3683 9450
45 2580 6137
46 936 3614
47 1704 8718
48 5264 1983
49 1123 6976
50 5686 8391
51 6840 4616
52 689 9762
53 949 9673
54 7353 2077
55 6357 7500
56 3599 8974
57 1046 584
58 2436 6537
59 8180 3530
60 8908 6011
61 5899 2567
62 3168 229
63 6930 4655
64 3002 4892
65 1587 7241
66 1695 5990
67 2117 5045
68 3551 5479
69 3953 8876
70 6029 9955
71 6687 2282
72 4352 601
73 446 7199
74 1577 512
75 9532 9120
76 1347 9129
77 2268 375
78 5723 5662
79 2062 6396
80 6147 1380
81 5538 287
82 9788 4152
83 3681 899
84 8351 5540
85 6858 2694
86 5688 1970
87 4649 1180
88 7541 5970
89 7080 6752
90 8726 425
91 5002 8266
92 4370 9093
93 4737 2095
94 5644 8471
95 5849 7738
96 426 9584
97 9208 3421
98 1674 1853
99 993 5094
100 8749 8859
101 9766 1753
102 1046 1628
103 3542 8452
104 5568 9671
105 9316 2209
106 9603 4462
107 6242 1262
108 1740 6301
109 216 6314
110 2001 9630
111 2439 7571
112 5116 2832
113 389 7334
114 6214 3714
115 6525 2297
116 5157 8974
117 4459 3300
118 6994 6095
119 306 4492
120 9824 4274
121 8292 1266
122 1795 8591
123 6663 8338
124 9555 4308
125 5600 2520
126 70 4090
127 4155 1646
128 7542 2650
129 6430 5720
130 7662 4143
131 889 9919
132 1686 8494
133 2322 2618
134 3479 3095
135 8052 5918
136 8796 5722
137 6210 1753
138 9784 4862
139 9816 1260
140 3121 5766
141 8144 2839
142 2010 5637
143 9197 8848
144 2676 7414
145 8642 5511
146 1004 1555
147 100 5679
148 4080 5907
149 529 6167
150 5371 4273
151 2775 3298
152 6405 5292
153 1035 2174
154 7762 8863
155 3209 7056
156 3817 3739
157 7224 7119
158 9387 3370
159 3901 2170
160 4815 9836
161 4883 5339
162 6391 7492
163 6456 5697
164 9457 5500
165 1729 7905
166 6523 1223
167 1488 9172
168 8497 7648
169 8465 5255
170 2024 3099
171 1120 9316
172 5765 4961
173 3714 4323
174 1555 4289
175 7662 3146
176 9481 5768
177 5605 1219
178 161 5074
179 8147 5921
180 360 9002
181 9472 4352
182 4975 5216
183 5035 4581
184 4764 606
185 8907 7384
186 9991 6485
187 2768 1951
188 6492 2597
189 4249 2036
190 8862 1585
191 9453 1525
192 1188 8015
193 2769 8734
194 7787 8130
195 6921 7643
196 899 6536
197 1269 7268
198 6974 1175
199 762 9676
200 3778 4458
EOF
