NAME: tsp_n200_uniform_train_007
TYPE: TSP
DIMENSION: 200
EDGE_WEIGHT_TYPE: EUC_2D
NODE_COORD_SECTION
1 4231 9788
2 9077 2488
3 579 4099
4 2005 6647
5 2808 5360
6 6720 9907
7 659 8366
8 7301 4040
9 5094 4235
10 1586 8811
11 1770 483
12 7967 4063
13 3088 1533
14 9899 7181
15 8316 351
16 7580 1170
17 4073 3926
18 715 7113
19 7482 5592
20 5715 8630
21 1509 1500
22 2471 4749
23 7051 4914
24 1312 3030
25 8290 7233
26 4708 1822
27 5964 4569
28 6608 7215
29 2675 3334
30 168 857
31 8695 6656
32 5798 628
33 1734 4937
34 1069 4779
35 7953 2107
36 1215 4186
37 6345 5501
38 59 9666
39 1383 7095
40 2777 1462
41 1498 6252
42 4352 2412
43 9707 1731
44 5940 7148
45 8054 773
46 1571 1034
47 7431 9468
48 6975 1442
49 2464 1624
50 586 1548
51 3602 1404
52 3176 2827
53 5317 3331
54 1090 7601
55 1738 1867
56 4174 4476
57 9544 9028
58 4951 4433
59 2060 8709
60 4076 3587
61 6510 3578
62 6254 8905
63 2780 3165
64 1296 4169
65 557 6072
66 4940 4195
67 6384 5262
68 8460 4761
69 2697 6596
70 6200 2097
71 4856 8411
72 9278 4008
73 8749 1346
74 7537 396
75 3271 8945
76 8836 6308
77 9809 6881
78 6504 4195
79 9241 5655
80 6747 4255
81 6491 2373
82 7262 475
83 7503 7527
84 5639 2566
85 9149 8162
86 9953 7773
87 6722 2352
88 6026 4409
89 7796 2907
90 570 2328
91 6083 9510
92 6109 1435
93 5728 9828
94 3804 7324
95 8678 7896
96 5464 9843
97 7286 871
98 476 4255
99 624 727
100 9322 3479
101 4399 8637
102 448 9095
103 2025 2925
104 5282 7291
105 2004 9147
106 2821 6370
107 3522 6161
108 1598 4804
109 8751 6726
110 9225 1981
111 181 2591
112 3335 9242
113 6812 9163
114 7872 1016
115 9016 7219
116 121 911
117 9801 8556
118 6691 1673
119 355 3366
120 8864 6770
121 7427 8695
122 8236 6908
123 9697 5585
124 7527 5728
125 8001 5239
126 2270 9778
127 3687 6185
128 1175 7168
129 5984 1890
130 5061 9488
131 1468 5880
132 6367 1188
133 4895 7704
134 2343 8270
135 8389 9768
136 7542 4892
137 4645 1024
138 8468 536
139 9979 4180
140 253 257
141 1500 6445
142 6319 1669
143 9358 5721
144 2455 8004
145 3338 2829
146 4089 8527
147 815 5951
148 4153 1275
149 1590 6030
150 6655 8665
151 9538 9901
152 3438 5942
153 4975 6789
154 8838 4714
155 7581 7674
156 4662 5673
157 5419 2946
158 9596 1906
159 8251 3731
160 7630 4680
161 2088 3390
162 3588 5920
163 366 6737
164 6915 1128
165 211 8392
166 1132 1197
167 5683 8611
168 5465 8733
169 8526 7425
170 6670 1696
171 9579 2475
172 8581 5576
173 7395 8919
174 8180 2315
175 4876 2886
176 3066 7414
177 2181 6481
178 3372 321
179 5530 2
180 8649 5457
181 1945 1350
182 1039 2237
183 2733 706
184 8775 1169
185 4424 5623
186 2351 4726
187 143 714
188 8667 1892
189 6236 3773
190 8542 3810
191 8045 3340
192 8026 3699
193 5299 4193
194 678 6864
195 8803 2692
196 1831 1147
197 5577 1376
198 3736 2344
199 8209 1196
200 296 5752
EOF
