NAME: tsp_n200_uniform_train_002
TYPE: TSP
DIMENSION: 200
EDGE_WEIGHT_TYPE: EUC_2D
NODE_COORD_SECTION
1 7392 202
2 1025 9897
3 5978 4410
4 5525 2863
5 5863 1485
6 5527 7567
7 1427 5431
8 8678 5515
9 7569 7162
10 6076 9924
11 6315 998
12 3288 932
13 5109 754
14 111 9534
15 6959 9679
16 2765 5669
17 2707 2561
18 7773 6110
19 4207 5067
20 9674 4704
21 8161 831
22 9522 6541
23 1081 7905
24 5605 3522
25 846 91
26 985 3404
27 8005 2316
28 2740 6298
29 7116 4152
30 6656 9491
31 4864 4479
32 4994 6434
33 4370 8684
34 6454 4270
35 5304 5684
36 5482 6163
37 5859 1699
38 8390 6577
39 6644 4305
40 3061 6892
41 5317 1635
42 7397 1525
43 1085 3401
44 4195 3895
45 5575 9170
46 1183 9058
47 5641 3410
48 4713 8223
49 3582 5321
50 3046 4093
51 2420 8079
52 9688 1830
53 1618 9953
54 7822 6076
55 9266 8608
56 5222 381
57 8395 9519
58 9462 462
59 1688 8245
60 596 5863
61 1778 8932
62 191 8456
63 3879 8872
64 6253 4513
65 4992 6682
66 5238 2286
67 5749 6145
68 3235 2616
69 5927 7701
70 6915 7988
71 541 5102
72 6760 4429
73 2837 9626
74 46 2829
75 6312 208
76 1845 5271
77 9029 1439
78 3575 902
79 1660 2272
80 5410 5488
81 7625 5496
82 5035 4934
83 6901 4480
84 9106 682
85 9696 6930
86 8573 2864
87 8955 952
88 5995 6855
89 689 4237
90 3160 3002
91 5969 3254
92 3576 4518
93 2064 6336
94 9464 2287
95 8524 9115
96 2514 2701
97 8147 772
98 9396 1527
99 4473 5718
100 851 5485
101 8433 3621
102 5621 8828
103 6047 8973
104 6852 9840
105 7454 448
106 5590 3919
107 768 5453
108 2476 6966
109 6875 4755
110 2142 9293
111 9976 1921
112 5298 8204
113 6764 7987
114 7621 5521
115 4914 7885
116 2285 4936
117 1912 3290
118 4037 451
119 7910 2460
120 619 9640
121 1767 7619
122 5182 4011
123 227 1696
124 1498 7906
125 5618 9871
126 1784 5566
127 762 2248
128 6462 1162
129 7073 7631
130 2898 6539
131 5010 7812
132 4973 8120
133 551 417
134 7591 485
135 6272 4391
136 5312 2152
137 868 29
138 553 1585
139 8128 5363
140 4034 775
141 1694 6395
142 2138 6088
143 9133 800
144 6922 3117
145 2051 2285
146 5439 337
147 9322 4287
148 9570 3217
149 7287 4094
150 7251 830
151 6191 2498
152 898 8267
153 3628 8400
154 7670 3950
155 6321 2034
156 6145 6979
157 2689 1821
158 688 4210
159 1962 5913
160 3006 4173
161 2445 6372
162 6302 901
163 9560 335
164 7768 5361
165 8089 3500
166 7736 5847
167 528 90
168 235 7156
169 3569 2727
170 6939 5939
171 261 5735
172 7187 7322
173 3223 8152
174 7557 9506
175 9582 521
176 4075 7367
177 6349 8288
178 6875 6012
179 9689 2737
180 2048 2272
181 7574 610
182 19 4462
183 6657 3611
184 9485 5957
185 6995 1522
186 3234 2415
187 9738 4346
188 3218 8039
189 9829 263
190 1368 9093
191 7297 145
192 3987 9407
193 5524 6163
194 7798 2382
195 8811 1503
196 6291 5844
197 3719 9464
198 5883 564
199 9866 6584
200 546 841
EOF
