NAME: tsp_n200_uniform_train_013
TYPE: TSP
DIMENSION: 200
EDGE_WEIGHT_TYPE: EUC_2D
NODE_COORD_SECTION
1 1289 7911
2 3238 2076
3 8789 5200
4 520 7766
5 5812 8335
6 7783 1957
7 4670 33
8 6534 8539
9 9291 9431
10 9081 499
11 9697 121
12 1857 5445
13 7764 3456
14 9208 6864
15 7120 6872
16 8517 8816
17 5690 8503
18 9757 8848
19 2963 3698
20 8495 5658
21 2881 6664
22 45 8170
23 389 679
24 2495 1216
25 6911 2231
26 298 274
27 516 5976
28 273 3219
29 7899 2353
30 6134 2594
31 1667 4911
32 5185 3848
33 1027 1396
34 3205 4948
35 5996 5088
36 5944 471
37 7080 5370
38 7087 3881
39 822 618
40 7594 6247
41 5378 1683
42 8934 1003
43 2288 1414
44 6693 5864
45 2096 2568
46 9273 6476
47 2538 7758
48 5019 8248
49 2863 6523
50 6953 1766
51 2748 242
52 6773 6183
53 1366 1621
54 1081 5
55 4549 906
56 8263 7354
57 5804 7382
58 3101 884
59 7139 528
60 7969 323
61 8429 5409
62 6284 5975
63 1660 7189
64 1486 8141
65 841 9276
66 2118 4242
67 6499 5097
68 1679 4362
69 1303 6262
70 249 3003
71 6480 4684
72 2995 7284
73 4623 586
74 9413 2830
75 454 4339
76 5827 5909
77 8245 4217
78 3702 8821
79 6633 8800
80 6608 988
81 704 779
82 6027 6327
83 3000 3634
84 841 2935
85 6860 8955
86 3210 130
87 2417 1952
88 2033 1078
89 7993 2314
90 5016 9641
91 5296 2458
92 8626 8743
93 6970 9928
94 1096 5595
95 1375 8585
96 9974 351
97 1121 3046
98 9285 4726
99 1586 1386
100 1550 9651
101 8298 688
102 6108 5237
103 4289 9406
104 9946 7080
105 95 6625
106 7244 5358
107 6512 2617
108 4962 2871
109 4990 9215
110 4249 4430
111 6641 7878
112 7307 2
113 4807 3583
114 317 7995
115 7281 3784
116 9742 3393
117 683 1910
118 4241 5411
119 3221 1092
120 6656 3195
121 3857 9552
122 9441 1833
123 7484 2142
124 8684 5408
125 8590 7003
126 5868 8176
127 7745 9135
128 3869 4641
129 5240 6951
130 5616 1634
131 3007 4613
132 9456 5817
133 3248 9590
134 2484 6979
135 4249 9865
136 8847 2399
137 909 7298
138 6220 9311
139 6881 4264
140 6862 7347
141 2414 6966
142 6769 258
143 1891 9704
144 2643 5440
145 4229 7076
146 6157 2896
147 4689 3705
148 4137 7182
149 2777 485
150 3233 7068
151 1547 9396
152 318 373
153 5383 3957
154 8908 300
155 8403 3471
156 4887 6230
157 8205 493
158 4009 5312
159 3504 8425
160 3792 3239
161 2228 7387
162 1260 9403
163 2775 9826
164 2247 1314
165 5967 8278
166 4968 809
167 1957 3848
168 3812 6344
169 3615 1995
170 6739 6143
171 7532 5596
172 6392 1886
173 7942 8295
174 3953 6420
175 3477 8059
176 7179 7208
177 9776 6561
178 9452 5869
179 4952 245
180 1895 9870
181 3375 2525
182 2500 4287
183 4298 6365
184 2083 847
185 8780 3746
186 5900 4370
187 3830 8103
188 2097 1029
189 948 9236
190 7252 5690
191 3994 9010
192 4752 9674
193 6966 8451
194 5608 3588
195 263 1170
196 9627 6452
197 5502 5156
198 9452 9672
199 5588 6083
200 8441 1765
EOF
