NAME: tsp_n200_uniform_train_005
TYPE: TSP
DIMENSION: 200
EDGE_WEIGHT_TYPE: EUC_2D
NODE_COORD_SECTION
1 9788 3931
2 4481 6388
3 7611 8892
4 1657 4805
5 9172 5593
6 5039 5495
7 9756 5583
8 3928 6861
9 1521 5246
10 5397 2723
11 641 7436
12 3944 6140
13 7407 394
14 8589 1849
15 1294 7391
16 3352 9090
17 6214 1450
18 5179 7485
19 1304 3481
20 9611 2403
21 415 5854
22 350 4532
23 571 7743
24 866 3673
25 5680 5686
26 707 9354
27 4349 1560
28 2766 963
29 1648 9853
30 4106 5927
31 6678 998
32 2656 8004
33 1849 8293
34 8599 4025
35 7365 7224
36 1762 1064
37 7157 868
38 683 9991
39 2657 1394
40 8361 4916
41 2797 7671
42 7685 1780
43 2647 1219
44 4467 1527
45 582 6314
46 8986 5535
47 7361 1777
48 1296 1013
49 1819 944
50 2131 7864
51 1279 8270
52 7415 8548
53 7425 5581
54 9590 389
55 2339 4253
56 7615 2733
57 4961 5909
58 272 1209
59 1454 6108
60 4042 5932
61 7769 7916
62 5792 8530
63 1814 7430
64 6533 9806
65 1482 1453
66 904 1485
67 5603 8978
68 5518 8644
69 3582 793
70 2014 5590
71 6279 2125
72 6068 5679
73 5454 8016
74 8377 2359
75 3196 5635
76 3843 6184
77 9074 1853
78 7233 8115
79 2797 4196
80 5641 7405
81 3304 7892
82 7844 8140
83 3879 7498
84 2669 7839
85 1511 990
86 1892 9578
87 7442 2568
88 8562 3709
89 2341 6981
90 5992 7949
91 7971 5120
92 4299 8111
93 4566 2103
94 5827 3424
95 613 7961
96 1832 8745
97 5618 9556
98 9192 9694
99 2122 2513
100 9177 1837
101 3288 6531
102 6782 2295
103 8201 4245
104 2811 1228
105 9510 9130
106 8369 4723
107 1334 2692
108 3295 1835
109 8736 1334
110 5289 169
111 1943 2235
112 7768 4470
113 8566 9587
114 8997 7870
115 710 7642
116 8223 175
117 7592 9979
118 8516 2178
119 7041 3778
120 51 8762
121 2921 4363
122 671 6057
123 9908 7592
124 7278 7296
125 6255 2295
126 1848 3571
127 1093 6088
128 2668 5778
129 949 9903
130 5402 6647
131 8936 6593
132 8948 2238
133 6262 1635
134 1311 8272
135 5494 8179
136 6384 9828
137 5253 1737
138 893 785
139 3086 3914
140 8358 2189
141 2836 4535
142 3639 4599
143 7166 7496
144 3973 2812
145 2639 1342
146 9040 7571
147 5503 8431
148 2510 3208
149 1731 5639
150 6133 9620
151 6482 8758
152 3748 4362
153 5680 3042
154 1880 4825
155 1836 9151
156 4271 9873
157 385 9100
158 3706 8792
159 9320 5867
160 3024 2556
161 9177 1608
162 9352 6475
163 6833 8646
164 8246 2370
165 6627 3202
166 8278 5529
167 3260 2130
168 4832 7136
169 335 4244
170 3398 2116
171 2781 6379
172 4666 2829
173 4323 2273
174 6240 3997
175 102 933
176 2397 931
177 3868 3489
178 3320 3157
179 1666 3213
180 5776 438
181 1274 7509
182 538 8947
183 8878 1685
184 7275 7574
185 7291 6304
186 6755 1049
187 900 6117
188 3496 7000
189 6610 5988
190 7834 2284
191 3256 3739
192 7752 2513
193 5370 7081
194 1063 1403
195 145 6968
196 9416 3977
197 4472 5885
198 5583 7234
199 9038 1984
200 1902 9740
EOF
