NAME: tsp_n200_uniform_train_008
TYPE: TSP
DIMENSION: 200
EDGE_WEIGHT_TYPE: EUC_2D
NODE_COORD_SECTION
1 2389 6762
2 8795 2510
3 1314 7492
4 4860 4761
5 9013 4782
6 1205 6566
7 461 5254
8 5599 9603
9 2559 3996
10 7701 4102
11 1123 6725
12 5638 2788
13 365 6616
14 1642 1563
15 517 3806
16 2183 4572
17 6746 5059
18 628 659
19 1289 542
20 2359 3916
21 8142 3652
22 8460 4709
23 65 118
24 9081 7756
25 9951 4698
26 4174 3907
27 8071 3100
28 6372 1327
29 8661 2877
30 2985 2129
31 8834 5456
32 4723 7585
33 3537 2697
34 6234 2708
35 6928 8464
36 9337 7846
37 3686 1218
38 17 5941
39 5029 1751
40 2042 6624
41 3237 4809
42 9693 402
43 7167 4901
44 7286 8693
45 9809 952
46 5920 9189
47 6575 8644
48 4576 2775
49 221 1691
50 2934 6421
51 2126 2010
52 4519 6225
53 2102 1673
54 1910 1869
55 5220 8304
56 4961 7223
57 9643 5544
58 4595 2107
59 5727 5584
60 7227 9640
61 4593 9020
62 6931 3747
63 9574 5044
64 2491 5014
65 5165 3811
66 959 511
67 5762 8470
68 8026 905
69 2202 1195
70 4830 7327
71 6071 1186
72 1819 7803
73 3138 1499
74 3907 7978
75 8898 6603
76 7855 4891
77 8219 4356
78 3919 2848
79 839 1598
80 1734 2923
81 6976 2942
82 5816 8272
83 2973 6209
84 8369 6597
85 7451 465
86 292 3216
87 5225 5625
88 149 1956
89 1703 4369
90 250 4748
91 6849 3542
92 2392 6910
93 6681 3256
94 7571 5445
95 6213 4182
96 9665 7
97 1951 214
98 4183 9708
99 4645 4787
100 1680 4467
101 7949 2001
102 7841 7346
103 6707 3131
104 548 7845
105 6367 8169
106 2703 135
107 420 7632
108 4781 1093
109 4289 5854
110 8754 3371
111 7832 9311
112 9463 1647
113 2383 9728
114 1508 6856
115 9465 4487
116 3804 6553
117 2186 6892
118 7322 9291
119 2063 3368
120 6351 6979
121 3483 716
122 6298 3889
123 9141 5897
124 9059 629
125 6978 7486
126 5832 4821
127 8163 2917
128 2993 9736
129 5117 1394
130 2760 6727
131 5620 3199
132 5471 431
133 4613 9888
134 1107 3063
135 6803 3417
136 3294 5401
137 9720 3730
138 3201 645
139 2960 1730
140 3514 8049
141 7406 9689
142 7682 8272
143 2726 9321
144 3413 5284
145 8421 4645
146 1117 8778
147 3761 9482
148 5449 3545
149 457 4677
150 5990 7130
151 2159 2815
152 2309 9255
153 516 9513
154 4035 135
155 4631 7064
156 2633 3680
157 3306 1359
158 8340 2179
159 9983 6842
160 6396 1566
161 981 4365
162 9479 7629
163 875 3700
164 7062 2721
165 2807 2770
166 3816 9084
167 3 4802
168 4758 8608
169 2953 2687
170 3969 183
171 6738 692
172 7860 6977
173 3946 1850
174 612 8329
175 8926 6723
176 4277 3206
177 6262 8814
178 4882 232
179 8551 5946
180 4424 9760
181 5323 795
182 5763 164
183 7444 1037
184 4110 9850
185 3029 149
186 4034 9977
187 2124 7371
188 6860 5489
189 5527 5750
190 1276 8583
191 8030 7946
192 8551 643
193 5370 4555
194 3216 1061
195 5082 4024
196 6269 5374
197 2916 1522
198 6563 9976
199 9482 5115
200 6287 3933
EOF
