NAME: tsp_n200_uniform_train_017
TYPE: TSP
DIMENSION: 200
EDGE_WEIGHT_TYPE: EUC_2D
NODE_COORD_SECTION
1 3949 5972
2 6537 5054
3 2704 9260
4 5514 837
5 2909 9494
6 9324 6710
7 2606 6186
8 6353 534
9 4060 7035
10 4238 6358
11 2723 8193
12 5640 8591
13 7093 1174
14 178 5179
15 7500 4670
16 1078 4078
17 3296 9155
18 3319 3128
19 2592 5542
20 4015 4927
21 9872 7102
22 675 8666
23 2866 9189
24 4203 9520
25 4695 2718
26 7537 9649
27 9039 1944
28 5673 3867
29 3274 7089
30 4043 3369
31 8886 3041
32 4346 6149
33 9705 5716
34 1400 7529
35 4060 2655
36 8108 3414
37 1829 1559
38 9388 17
39 6882 8851
40 4867 3202
41 6592 649
42 8794 2887
43 1294 6312
44 6232 6255
45 4374 1237
46 9868 4403
47 9049 9077
48 553 4681
49 1450 2385
50 5683 804
51 1439 5253
52 7778 4810
53 2234 4755
54 6771 6825
55 7821 116
56 1576 1206
57 9894 7502
58 3452 1684
59 4116 2994
60 7185 4292
61 2844 3241
62 8182 5564
63 868 5943
64 6377 8530
65 3925 3228
66 1991 6571
67 962 2304
68 9846 4957
69 7484 3594
70 9646 719
71 4159 9063
72 6168 3935
73 2452 2810
74 6252 2992
75 1950 2182
76 4643 3791
77 2822 9976
78 2195 6141
79 2787 3026
80 9212 8959
81 5315 4943
82 9040 6287
83 6884 9086
84 2101 1176
85 8687 4625
86 800 8306
87 4337 2390
88 1002 5634
89 4304 8812
90 6919 4104
91 6681 5807
92 3433 589
93 7497 7415
94 9618 4561
95 8798 6619
96 9788 2476
97 3886 4751
98 1241 5897
99 5528 3994
100 9705 2170
101 6957 6931
102 3874 6299
103 3091 9190
104 8140 3134
105 8873 9797
106 2786 1519
107 1081 9282
108 2326 6211
109 2291 9069
110 7855 6607
111 6016 8683
112 8947 6786
113 6343 4285
114 9973 3671
115 4764 9866
116 1551 7254
117 9364 1012
118 7533 6949
119 7782 3721
120 8771 4955
121 3690 6275
122 96 4075
123 7353 4248
124 871 1698
125 7432 7455
126 5146 8671
127 1431 3164
128 7406 4565
129 8580 1543
130 3450 2376
131 1592 1787
132 9287 4093
133 8343 6466
134 3308 1044
135 8658 3451
136 6117 8069
137 3720 6913
138 5584 1437
139 8627 8723
140 236 8081
141 7778 4994
142 5673 9425
143 2130 1538
144 3933 7581
145 3798 3097
146 9959 7859
147 6755 9472
148 3178 2584
149 5806 8212
150 489 9368
151 5828 6446
152 5685 7193
153 2806 781
154 8041 1078
155 589 2780
156 8716 7196
157 9621 2033
158 8832 744
159 2229 9009
160 1875 7584
161 8493 3685
162 4849 1893
163 5155 187
164 7614 4671
165 6342 7188
166 1639 8075
167 784 544
168 4264 1234
169 3988 4334
170 1139 3005
171 7276 9801
172 4610 8374
173 5214 4022
174 9458 5922
175 3473 7854
176 928 3352
177 5626 5751
178 5112 9051
179 1996 9444
180 8756 8573
181 64 5852
182 1224 3140
183 8025 128
184 3796 9746
185 3928 834
186 3067 3913
187 1289 8138
188 5631 2360
189 8879 1644
190 7396 2675
191 5399 3432
192 8520 7590
193 3446 3033
194 5769 3541
195 9155 3335
196 1145 3153
197 7099 1734
198 5493 8399
199 6459 9092
200 7710 9725
EOF
