NAME: tsp_n200_uniform_train_010
TYPE: TSP
DIMENSION: 200
EDGE_WEIGHT_TYPE: EUC_2D
NODE_COORD_SECTION
1 2516 6265
2 7417 6238
3 155 9333
4 3295 2677
5 9218 312
6 6725 2477
7 6474 872
8 6015 1469
9 224 3596
10 7128 9829
11 7520 9777
12 7040 4731
13 6236 6303
14 1633 3952
15 5789 1745
16 1980 6464
17 6449 2374
18 2519 7925
19 958 6248
20 2362 113
21 808 3042
22 7416 8264
23 6429 6346
24 1308 2434
25 3405 8744
26 1782 8980
27 9016 6516
28 5918 9532
29 9977 3176
30 7407 5637
31 3851 1621
32 569 2250
33 3436 1989
34 1575 7046
35 4252 9842
36 5219 6781
37 2336 1765
38 8748 7222
39 2892 4991
40 9669 4920
41 2313 6956
42 8538 1451
43 8960 7959
44 6290 6196
45 3030 2929
46 3077 4902
47 6789 1117
48 6045 3341
49 7735 2777
50 4423 5025
51 2695 1828
52 8122 5093
53 2840 8647
54 8565 3768
55 3631 9033
56 4484 6258
57 9855 4811
58 931 1759
59 8921 1181
60 9464 3449
61 2467 8456
62 7785 9837
63 2516 7750
64 9990 5438
65 8255 6818
66 563 8383
67 4898 1489
68 8345 1122
69 3572 5264
70 9396 837
71 1843 7276
72 3622 7162
73 2213 7770
74 7402 5919
75 8830 6185
76 3479 7690
77 2455 8688
78 919 1970
79 457 6689
80 2499 4191
81 9217 8565
82 7496 4132
83 4247 3199
84 3012 1695
85 8272 7446
86 462 2914
87 6422 2258
88 6312 1721
89 3325 9437
90 2023 2623
91 7218 7070
92 9374 8655
93 3449 5006
94 3946 9705
95 3937 5928
96 4133 2575
97 9679 6880
98 992 6041
99 870 3583
100 2546 3295
101 7375 9833
102 4770 1298
103 2463 1366
104 1168 8692
105 8588 7266
106 8577 2345
107 2881 8883
108 5710 8900
109 3457 4628
110 2991 7519
111 3852 7439
112 6644 6739
113 4197 7913
114 1908 45
115 8840 8216
116 5025 6228
117 3758 2554
118 3314 6351
119 9443 909
120 7567 5920
121 565 6345
122 5609 4973
123 7143 1681
124 3044 8388
125 4432 9609
126 445 7286
127 4377 6104
128 7744 4704
129 4552 1700
130 3657 4365
131 1087 9178
132 966 239
133 1089 6689
134 6757 9196
135 4549 2274
136 5138 667
137 1939 8601
138 3002 3625
139 7981 3988
140 7439 4943
141 3019 148
142 6888 4120
143 8680 4974
144 280 5180
145 2955 2671
146 4273 1100
147 2391 4392
148 3796 7607
149 0 7542
150 4950 2355
151 7484 7904
152 9061 8604
153 3291 1851
154 3714 1411
155 139 3407
156 2125 7967
157 1276 2197
158 5442 8827
159 1378 2629
160 2291 4536
161 5365 2264
162 8698 4310
163 8157 8071
164 4449 5968
165 7654 6038
166 5686 1825
167 7168 1854
168 640 6055
169 387 7553
170 3334 1366
171 2746 6339
172 6474 3746
173 154 8132
174 6558 6766
175 7250 4724
176 1685 8209
177 9606 4167
178 1779 1117
179 7649 1626
180 2014 8009
181 3872 769
182 3046 8531
183 3306 1715
184 1111 2253
185 6523 514
186 2045 6779
187 8793 6901
188 5360 4350
189 5868 4402
190 3281 1734
191 7793 8574
192 3900 6740
193 3370 1336
194 565 9062
195 9940 9527
196 7590 8104
197 3247 6488
198 583 5226
199 7625 416
200 5017 4223
EOF
