NAME: tsp_n200_uniform_train_016
TYPE: TSP
DIMENSION: 200
EDGE_WEIGHT_TYPE: EUC_2D
NODE_COORD_SECTION
1 5262 2752
2 3497 5207
3 443 5313
4 9839 9419
5 4774 5594
6 444 7355
7 7912 2278
8 2569 294
9 9833 6388
10 5511 5579
11 8895 4238
12 5938 5460
13 571 6694
14 6701 6312
15 9013 6478
16 1814 9965
17 6542 760
18 2215 2081
19 8427 4841
20 7670 9127
21 2544 3321
22 8617 8601
23 2829 6553
24 9786 2810
25 7771 1265
26 6229 6136
27 7600 4855
28 2118 3734
29 7329 9346
30 4324 3108
31 9117 2425
32 9003 4728
33 8771 9171
34 5725 9821
35 806 4558
36 6210 5085
37 3392 2721
38 5741 2327
39 5748 999
40 4093 7900
41 3212 6229
42 8899 2687
43 4236 8595
44 1780 2020
45 1836 7596
46 4164 2621
47 1590 4822
48 2990 8205
49 5474 6031
50 9402 8082
51 8930 7543
52 2486 8760
53 8809 1920
54 4749 9482
55 9531 6792
56 5426 5151
57 4663 3945
58 6197 7258
59 4320 3517
60 2799 8728
61 4306 867
62 6289 8973
63 8520 1319
64 5773 8498
65 8641 1264
66 5789 7356
67 1319 144
68 9224 6042
69 4027 2453
70 19 7483
71 5670 922
72 2676 6683
73 4929 530
74 658 7799
75 4591 4336
76 3336 508
77 8511 5468
78 7965 4028
79 9297 6065
80 6074 2524
81 9146 8404
82 6091 469
83 2584 3768
84 6634 6977
85 1045 1520
86 4139 3693
87 515 3188
88 2177 1406
89 9236 5963
90 408 5295
91 4771 7951
92 1513 2665
93 9146 8205
94 2726 7317
95 7520 4473
96 4366 6099
97 1277 6903
98 2969 1284
99 4472 3420
100 4066 3998
101 2530 1029
102 1802 9412
103 579 6903
104 9069 9452
105 3266 8078
106 3417 763
107 4033 1935
108 8739 592
109 4213 2030
110 7175 9883
111 2504 3419
112 8805 57
113 2946 3624
114 2377 9419
115 152 800
116 3504 7152
117 1526 3673
118 5272 3609
119 1917 425
120 7497 4466
121 2944 9051
122 7011 8984
123 2365 1164
124 5733 1801
125 7979 3078
126 8716 1788
127 5524 8296
128 9998 2674
129 9422 3469
130 933 3454
131 9849 1974
132 40 85
133 2804 8399
134 9435 1849
135 7549 6410
136 1926 4893
137 3532 7225
138 6011 85
139 2249 818
140 108 6947
141 6776 2960
142 2435 9130
143 1214 1319
144 8504 6629
145 3713 9918
146 4563 694
147 1688 2315
148 7824 8374
149 349 8033
150 9672 2408
151 3155 4241
152 5080 2314
153 1801 5065
154 8104 7973
155 3985 3572
156 7866 9194
157 7224 9062
158 3051 4214
159 2400 5275
160 3763 7288
161 3399 7475
162 9723 6293
163 6908 2861
164 7642 3735
165 666 2376
166 4844 9981
167 1172 1278
168 2198 9121
169 3623 4504
170 2889 1473
171 5299 6461
172 1543 1462
173 6681 8844
174 8173 9366
175 482 6386
176 8503 9360
177 2108 3626
178 5490 4533
179 8607 5707
180 2188 9641
181 3337 3118
182 6702 4894
183 8281 2287
184 2987 9320
185 2849 2232
186 2127 7086
187 9037 8155
188 520 454
189 2877 3618
190 7018 7329
191 2582 7010
192 3490 2542
193 102 917
194 5323 7494
195 3370 3981
196 477 522
197 3858 4073
198 8004 8848
199 6775 4837
200 3648 3854
EOF
