NAME: tsp_n200_uniform_train_019
TYPE: TSP
DIMENSION: 200
EDGE_WEIGHT_TYPE: EUC_2D
NODE_COORD_SECTION
1 7988 337
2 1098 6547
3 3152 3776
4 8170 4816
5 2011 479
6 6211 6119
7 7493 2536
8 2118 9538
9 3361 5820
10 1032 1144
11 6092 3221
12 9630 5761
13 1973 8607
14 8697 6212
15 7554 7183
16 6277 8581
17 4347 1353
18 6048 3873
19 418 1524
20 4511 689
21 1484 742
22 7871 3439
23 9630 531
24 685 2243
25 7435 858
26 5366 1606
27 3503 3392
28 3009 3103
29 6404 6552
30 9957 1993
31 3222 7524
32 7995 8605
33 8186 4362
34 71 1983
35 7724 1799
36 2747 6346
37 3712 389
38 1297 1000
39 9646 950
40 403 1281
41 6379 8361
42 3188 7976
43 7455 337
44 5378 9523
45 7069 8021
46 2704 3070
47 2392 2282
48 3404 6801
49 4097 5029
50 8720 6138
51 782 7283
52 3352 1277
53 8959 7398
54 9391 5085
55 2220 6861
56 4575 3432
57 4796 6936
58 4711 6038
59 6361 3534
60 9720 3921
61 5754 9934
62 5044 5189
63 700 9712
64 8796 546
65 7848 1994
66 8712 9654
67 7534 7778
68 1470 7385
69 5771 663
70 5734 7396
71 7626 7150
72 8192 3177
73 3168 2355
74 1281 7799
75 2866 1248
76 1328 2999
77 3465 1202
78 6694 5488
79 2614 7382
80 1965 9816
81 20 3402
82 1259 4998
83 7408 8986
84 306 1782
85 424 5966
86 1670 59
87 1135 8504
88 5384 8694
89 6119 4490
90 6074 28
91 4710 7118
92 5943 5915
93 1155 623
94 4175 9464
95 7434 9163
96 6759 3246
97 4582 3252
98 9620 2151
99 1465 8305
100 362 7604
101 5969 9396
102 2255 4385
103 5727 2937
104 1466 1961
105 1996 9006
106 6260 3620
107 5702 7877
108 5038 3184
109 9421 9291
110 3431 7889
111 5551 2784
112 8822 4434
113 2463 2833
114 6801 4050
115 5781 7075
116 1113 6077
117 5881 453
118 1007 4659
119 6101 8050
120 3299 5988
121 7344 7840
122 2077 8859
123 477 3611
124 5257 5845
125 362 244
126 4623 55
127 8429 5463
128 5313 9550
129 498 2593
130 9457 6570
131 3293 6468
132 8104 5855
133 1681 5005
134 26 7485
135 7870 6506
136 4826 3797
137 4744 9634
138 7896 5112
139 152 4857
140 9281 397
141 2963 4472
142 3978 84
143 7878 615
144 1021 5025
145 8617 5082
146 7440 1591
147 923 9295
148 5323 8162
149 9817 493
150 3834 8695
151 5758 6833
152 2388 3804
153 7460 7253
154 7749 6346
155 6018 4212
156 3039 9598
157 8069 5661
158 5963 4523
159 3509 6322
160 1251 3976
161 7642 3763
162 8029 5234
163 4528 4208
164 3069 2597
165 9503 8322
166 9460 4632
167 5521 2798
168 5160 1358
169 8517 1244
170 7801 9913
171 8494 8052
172 9343 9215
173 3539 7525
174 6090 4730
175 8684 649
176 1196 8954
177 769 9586
178 3247 4308
179 6067 6415
180 6833 3535
181 2508 9274
182 2820 1794
183 1551 1820
184 2661 8622
185 9246 3168
186 1661 1655
187 2231 6283
188 5773 3829
189 6528 9534
190 3706 5288
191 757 7899
192 9563 8988
193 5559 6017
194 6457 2255
195 1806 4510
196 4195 7578
197 8762 2684
198 1262 2506
199 743 2344
200 2883 2367
EOF
