NAME: tsp_n200_uniform_train_001
TYPE: TSP
DIMENSION: 200
EDGE_WEIGHT_TYPE: EUC_2D
NODE_COORD_SECTION
1 4200 9755
2 66 1052
3 2240 4677
4 3809 3271
5 7187 7927
6 4786 8885
7 4106 693
8 2318 9655
9 5407 8094
10 2530 8015
11 4378 3772
12 5986 4835
13 5145 7557
14 6061 3233
15 4093 6730
16 6351 6626
17 4059 7082
18 4229 3621
19 7399 3361
20 3074 7834
21 1761 9678
22 3513 6993
23 8314 6806
24 8997 5478
25 5053 8141
26 646 6934
27 7513 8798
28 9939 276
29 939 4166
30 7210 4760
31 9223 5344
32 7251 4596
33 9085 4153
34 5128 8619
35 7024 9591
36 6309 3504
37 5973 3533
38 6429 7770
39 2251 5544
40 6374 9338
41 1592 2012
42 1961 8841
43 5609 50
44 6129 8250
45 6918 2949
46 2605 5773
47 9338 1742
48 5189 4778
49 4622 1323
50 229 5741
51 8533 8026
52 7048 9941
53 7578 6927
54 3338 3737
55 4138 5841
56 1262 9394
57 7683 7227
58 4195 9447
59 8417 7506
60 8950 183
61 9742 989
62 9091 2761
63 445 2759
64 445 4263
65 9067 4243
66 974 6943
67 8949 7671
68 9059 5032
69 326 1374
70 7690 114
71 9190 8133
72 7412 4319
73 4317 4506
74 2494 6343
75 8902 6857
76 67 88
77 1167 2819
78 7405 560
79 4110 3675
80 139 6379
81 5998 6531
82 4242 3047
83 53 9851
84 6015 6218
85 5316 7077
86 2527 6916
87 8805 3189
88 5111 1656
89 2918 5791
90 6978 7345
91 5499 4160
92 5395 896
93 9451 1296
94 6678 4563
95 3626 983
96 4923 5717
97 9031 8019
98 332 9515
99 8610 3242
100 4883 2160
101 8102 7702
102 9033 8092
103 3501 8755
104 2079 9134
105 6379 3121
106 5516 8482
107 130 9529
108 9844 6195
109 4635 3757
110 8415 8228
111 6116 2091
112 6250 7046
113 767 4423
114 6854 7377
115 3476 79
116 708 8492
117 9045 4932
118 3870 6864
119 3296 5945
120 6831 459
121 9071 3584
122 3482 1910
123 958 7794
124 9744 3941
125 7744 1945
126 6931 2370
127 9380 3265
128 3757 6251
129 5508 4919
130 9080 3769
131 797 405
132 4126 5642
133 4228 8969
134 378 8247
135 374 1333
136 3282 7544
137 7551 2544
138 5976 5408
139 8770 9864
140 4326 6508
141 3538 1105
142 9363 8874
143 7401 5455
144 5907 7770
145 2246 3146
146 3454 2579
147 1141 6328
148 9072 7379
149 4161 5928
150 646 6697
151 9078 5989
152 6756 8591
153 7333 4521
154 8511 2717
155 8962 4191
156 2731 6403
157 1553 6602
158 5251 4859
159 4832 5013
160 2436 6735
161 3376 3873
162 7332 8723
163 2961 5080
164 338 5717
165 7371 1005
166 7244 6535
167 1634 4634
168 1643 5421
169 5504 6720
170 9010 7214
171 5277 9054
172 1278 5381
173 2769 7628
174 778 896
175 9842 517
176 1247 6973
177 9350 9641
178 9641 9234
179 6998 5637
180 3700 6587
181 6885 793
182 3329 4062
183 5170 4281
184 9332 705
185 3293 7706
186 8601 2130
187 6313 4981
188 4672 2966
189 7308 3022
190 9336 1532
191 8692 9420
192 8392 1144
193 3802 8086
194 7596 179
195 8115 7669
196 9392 2781
197 8557 2880
198 4830 2713
199 5836 9147
200 4325 4499
EOF
