NAME: tsp_n200_uniform_train_018
TYPE: TSP
DIMENSION: 200
EDGE_WEIGHT_TYPE: EUC_2D
NODE_COORD_SECTION
1 8317 1052
2 4721 5878
3 3145 2068
4 7433 2079
5 5416 8042
6 6752 2364
7 5349 9312
8 7413 6195
9 6 594
10 6581 4910
11 6419 1129
12 4801 1776
13 3518 7319
14 3892 2978
15 3858 3385
16 3407 242
17 6950 35
18 7012 4187
19 7460 1943
20 288 7882
21 5690 5287
22 9032 2723
23 2504 9978
24 3857 3041
25 4512 8247
26 6281 4944
27 2275 8788
28 3309 5649
29 6620 9614
30 4728 5311
31 3790 827
32 1236 7159
33 9736 1771
34 9811 6362
35 6149 2429
36 8985 8654
37 7849 100
38 5447 1416
39 7247 4324
40 4159 4611
41 5958 2608
42 70 7698
43 7311 3625
44 7589 5265
45 2714 3273
46 6285 532
47 3668 6844
48 559 2898
49 6456 6430
50 7481 1506
51 2145 4220
52 6468 6349
53 7619 9412
54 9897 9766
55 9207 99
56 1387 6302
57 1696 6090
58 7440 9135
59 6183 5471
60 4969 6007
61 182 1217
62 5504 4536
63 5878 1653
64 1200 861
65 2967 4486
66 5171 9979
67 9284 2917
68 9158 7564
69 3366 2099
70 7915 6767
71 1139 4597
72 8240 730
73 2375 6026
74 957 8824
75 5663 6972
76 8184 3178
77 2906 1351
78 4573 1835
79 5649 5441
80 6184 2631
81 1439 8830
82 9562 3577
83 5516 3383
84 8796 2253
85 6105 3970
86 7155 9290
87 2700 5248
88 6421 572
89 3930 2777
90 8019 5441
91 664 4464
92 163 570
93 8394 546
94 2070 4397
95 9660 6866
96 3325 2831
97 6992 5439
98 9846 9217
99 2446 5728
100 9410 6099
101 4753 3835
102 2017 2475
103 7305 7613
104 5225 4004
105 8915 8109
106 8642 6974
107 3230 9442
108 8288 3767
109 707 7664
110 2390 279
111 1803 6563
112 7917 7439
113 6018 7234
114 9584 1418
115 3876 507
116 8201 8085
117 686 3193
118 7612 3166
119 2467 6707
120 9471 4848
121 5811 2556
122 7296 3979
123 4943 1331
124 5182 1067
125 2443 6398
126 6470 1664
127 8999 8458
128 7586 2100
129 9223 8666
130 1131 348
131 6848 1216
132 89 2784
133 6767 6475
134 8975 2212
135 809 7357
136 467 8078
137 967 6567
138 4448 2758
139 4373 448
140 4675 4542
141 4376 8813
142 5497 7158
143 5139 9009
144 1523 7715
145 9387 6049
146 3727 3226
147 2271 3127
148 551 5432
149 7340 6583
150 5417 8873
151 9759 9850
152 5013 622
153 5514 968
154 2272 8388
155 5763 9986
156 3888 1498
157 7981 4538
158 3679 3127
159 9860 1323
160 3115 2603
161 2103 4439
162 2196 4011
163 198 2549
164 9833 1735
165 3395 5665
166 2522 7696
167 2251 1750
168 266 9459
169 5436 2912
170 8681 2209
171 2191 2730
172 2511 7503
173 6842 2107
174 240 8604
175 3290 3641
176 8861 7582
177 4505 9651
178 5061 3517
179 1457 9507
180 8823 7973
181 2546 2878
182 5104 6294
183 1945 7732
184 5301 6506
185 9234 9984
186 7678 9371
187 481 4910
188 7485 8274
189 6396 9399
190 5775 2636
191 355 4798
192 4971 9977
193 3930 608
194 7197 9503
195 7937 4511
196 2356 6063
197 7098 631
198 951 9240
199 3967 7125
200 1125 9792
EOF
