NAME: tsp_n200_uniform_train_009
TYPE: TSP
DIMENSION: 200
EDGE_WEIGHT_TYPE: EUC_2D
NODE_COORD_SECTION
1 1811 1025
2 9895 4875
3 7610 5400
4 2267 5991
5 3661 2396
6 8998 5102
7 2678 8731
8 9184 1558
9 8073 154
10 9219 7221
11 1687 3228
12 2661 8992
13 8988 762
14 5775 1445
15 2689 9347
16 5441 8519
17 694 8805
18 1127 3031
19 1258 3395
20 1155 6711
21 1130 3365
22 9980 9769
23 620 6888
24 1934 7135
25 4324 3462
26 9970 1255
27 9813 7953
28 3631 6082
29 9444 2338
30 4913 6541
31 2072 4649
32 6369 8474
33 1573 5414
34 5714 6538
35 3987 1848
36 9114 4223
37 3362 7074
38 8020 5724
39 3951 2511
40 1530 5470
41 1151 4046
42 8090 1246
43 7098 9568
44 8057 1377
45 1987 9413
46 9242 588
47 997 8326
48 2212 7609
49 3721 1960
50 1551 4034
51 349 1929
52 6599 8901
53 7553 5254
54 545 6078
55 6247 6567
56 7614 7790
57 2735 9373
58 4101 7168
59 6228 1739
60 63 1206
61 9551 3500
62 4732 3389
63 2044 4555
64 6004 3096
65 9829 6031
66 6182 4185
67 615 4162
68 3901 1938
69 8727 8968
70 6579 1853
71 8005 9038
72 2724 2684
73 5660 6806
74 2208 736
75 5221 6572
76 8385 5152
77 9073 2862
78 2035 7608
79 5637 5483
80 1439 7150
81 5407 3947
82 1665 863
83 2821 1753
84 4558 367
85 7505 1527
86 5548 96
87 8714 6712
88 3239 6982
89 653 8959
90 6710 1338
91 7315 8898
92 4778 3143
93 5738 9699
94 5561 1063
95 8894 7911
96 7921 5928
97 4498 5560
98 369 1975
99 8789 3407
100 5632 7603
101 7837 3442
102 5095 7847
103 9817 1515
104 3493 564
105 7296 7993
106 6639 5682
107 1900 6793
108 3933 210
109 5317 3847
110 5812 6880
111 4024 2442
112 2864 9813
113 6517 7690
114 2015 8592
115 6035 6839
116 289 2124
117 156 3419
118 585 1962
119 2563 7862
120 4915 657
121 9804 4100
122 2362 3326
123 6902 2442
124 5933 8404
125 2695 4179
126 4868 279
127 9103 3964
128 8769 174
129 838 3626
130 9886 1719
131 4110 7800
132 7263 6224
133 5516 5293
134 3856 3829
135 5933 1725
136 7429 6510
137 5622 5274
138 1227 8010
139 5517 7628
140 6141 5082
141 6447 7852
142 1282 4602
143 1828 2155
144 9249 6198
145 1558 6953
146 287 4666
147 9521 5226
148 1200 9313
149 7611 1329
150 7908 6037
151 1226 5567
152 1497 7943
153 4842 2452
154 5108 8182
155 545 7078
156 4231 6929
157 9909 6082
158 5437 6975
159 5227 54
160 3683 7753
161 7373 4392
162 1581 2557
163 6685 8195
164 139 1734
165 6574 1997
166 8547 92
167 7111 5969
168 5011 5271
169 4311 1689
170 9978 7831
171 659 7093
172 489 4888
173 141 9019
174 1633 5459
175 5363 7711
176 6720 5900
177 8483 5104
178 1147 7423
179 4689 7709
180 4642 3521
181 7430 9486
182 1109 1334
183 7617 9349
184 249 5162
185 3028 1255
186 9998 5608
187 2861 6490
188 6016 1857
189 5526 9266
190 1506 1598
191 8261 5115
192 8377 1864
193 9724 5259
194 5121 2081
195 3776 1651
196 3068 4710
197 8810 5458
198 9503 8811
199 4099 1783
200 4521 7199
EOF
