NAME: tsp_n200_uniform_train_011
TYPE: TSP
DIMENSION: 200
EDGE_WEIGHT_TYPE: EUC_2D
NODE_COORD_SECTION
1 870 416
2 8485 3870
3 8812 9424
4 5748 6346
5 2824 4477
6 4585 4349
7 9408 528
8 5829 1105
9 5508 3780
10 9340 4713
11 4572 4943
12 1323 4407
13 4832 7417
14 3351 732
15 950 9878
16 5663 5606
17 2377 4065
18 8712 8228
19 3078 6693
20 130 6353
21 6991 9650
22 4042 6147
23 5569 7102
24 8860 1500
25 7483 4455
26 4577 5954
27 7184 7438
28 9879 8837
29 8054 3715
30 3417 2174
31 2893 5948
32 5763 8575
33 8372 132
34 2860 7220
35 9212 5618
36 7824 7612
37 2939 3062
38 421 3291
39 8483 2516
40 293 5329
41 2881 4225
42 3128 344
43 395 6591
44 5663 6028
45 4564 3997
46 8086 8142
47 7769 8743
48 5460 4646
49 6715 7602
50 4087 213
51 93 3009
52 3596 7108
53 7095 6968
54 4629 4745
55 5134 5653
56 2018 9731
57 1172 8683
58 7386 6366
59 9139 9754
60 8910 1990
61 1919 3074
62 8472 9437
63 9449 5239
64 4972 172
65 2161 2491
66 7521 5538
67 3232 4741
68 6202 6756
69 7383 9323
70 6799 6133
71 1329 9178
72 3523 2137
73 6179 8374
74 1199 575
75 1012 9370
76 2467 2390
77 366 884
78 5125 7879
79 6454 7193
80 3258 2586
81 3156 5272
82 9841 951
83 7239 8002
84 5686 2891
85 7178 2156
86 8684 7637
87 6915 5702
88 3553 5655
89 9702 3300
90 5982 5293
91 8512 7854
92 873 7436
93 4794 1967
94 6668 3393
95 8175 5392
96 8987 157
97 9331 7939
98 7645 3204
99 4683 8069
100 5331 2918
101 1210 3560
102 635 9809
103 4467 7862
104 2465 9676
105 135 8247
106 9582 8231
107 3344 8955
108 9878 1633
109 1803 1157
110 8336 4445
111 5647 4270
112 1198 1227
113 2688 2316
114 9822 2492
115 1537 7475
116 9661 3987
117 5193 9042
118 9759 6365
119 5583 2220
120 1272 1734
121 3406 109
122 3686 5432
123 712 7596
124 9587 5087
125 5400 2556
126 6978 1424
127 4353 8217
128 5438 132
129 8626 4411
130 3471 924
131 3681 4999
132 9553 3983
133 7965 653
134 6652 8587
135 1605 3993
136 6448 4080
137 5733 1965
138 4967 5016
139 5693 1087
140 4676 6594
141 8940 7087
142 2898 4800
143 8043 4148
144 3090 4375
145 567 5840
146 3231 2968
147 7130 5788
148 1236 2289
149 8253 8243
150 81 5772
151 5528 7420
152 3904 802
153 824 7933
154 7842 1863
155 3245 2704
156 5187 6489
157 8074 3097
158 392 395
159 1868 3331
160 9506 4565
161 6203 8378
162 3397 5699
163 6805 8895
164 9516 320
165 487 8604
166 5646 9019
167 3779 3534
168 5917 3246
169 8922 6015
170 7258 664
171 2971 5456
172 5124 5907
173 3220 6972
174 4886 4968
175 7581 1534
176 9188 4157
177 1642 9278
178 4420 1980
179 462 4986
180 282 2932
181 3050 1063
182 7631 5592
183 7106 6939
184 7948 1638
185 7727 9693
186 8326 2810
187 390 506
188 7338 3325
189 7219 7127
190 2278 119
191 6388 7763
192 3074 7857
193 6044 2504
194 7992 6360
195 8596 5733
196 9215 412
197 9331 4443
198 8513 7404
199 1439 9656
200 9073 6698
EOF
