NAME: tsp_n200_uniform_train_014
TYPE: TSP
DIMENSION: 200
EDGE_WEIGHT_TYPE: EUC_2D
NODE_COORD_SECTION
1 4786 8766
2 7492 106
3 6577 1655
4 5994 9184
5 2198 1571
6 1040 6508
7 8768 7886
8 3002 6015
9 5093 35
10 2732 3884
11 9018 8564
12 3493 3879
13 1132 1459
14 1354 7512
15 5336 1437
16 7532 1712
17 4121 6120
18 1309 490
19 9890 2693
20 2429 8535
21 5164 7026
22 3807 6756
23 2940 5868
24 3450 9216
25 3261 6668
26 17 5374
27 4715 2822
28 9403 2239
29 6795 6852
30 4852 7397
31 586 5802
32 5218 2057
33 8527 9387
34 9394 5308
35 2741 6488
36 6740 3880
37 9497 6840
38 4345 5631
39 4118 4183
40 8693 971
41 2578 7040
42 4631 6147
43 2165 1700
44 5033 6880
45 346 3245
46 4005 5120
47 2430 4243
48 5917 1087
49 7389 2195
50 5033 3737
51 7334 9837
52 5835 258
53 8270 5071
54 5483 694
55 9296 9781
56 1414 2319
57 792 115
58 2675 1306
59 5409 7990
60 9329 6013
61 9954 6913
62 1259 9999
63 9380 7693
64 1791 2281
65 557 1160
66 7315 6836
67 1715 4137
68 1796 2716
69 9356 919
70 9996 3516
71 9665 7041
72 9159 9603
73 1785 9211
74 1992 1233
75 8696 7264
76 2105 9393
77 135 8032
78 380 4477
79 1436 7623
80 1133 5187
81 8704 3784
82 1682 1537
83 973 3957
84 2334 1582
85 4781 4170
86 3153 1902
87 41 2951
88 7347 4127
89 6187 2739
90 2685 4183
91 2607 1255
92 320 2558
93 7481 6470
94 1833 2090
95 8432 3218
96 3256 1292
97 386 3168
98 6167 1641
99 8095 3694
100 5930 6854
101 2933 8207
102 3247 3333
103 3605 771
104 9348 6524
105 6401 4626
106 1090 5011
107 6033 3138
108 3918 346
109 229 8636
110 1876 7103
111 5375 2918
112 1851 6582
113 9243 683
114 3421 7835
115 354 8508
116 1111 1406
117 6696 4232
118 823 4267
119 1971 7258
120 4708 8388
121 8056 6133
122 4441 6961
123 8823 1439
124 8883 715
125 2853 1544
126 8429 9847
127 12 8597
128 2728 692
129 2525 4607
130 1596 159
131 2035 7269
132 4697 7350
133 4134 7685
134 7949 2296
135 909 9785
136 5060 9928
137 7142 6825
138 1249 5698
139 6757 7411
140 8426 7858
141 8322 6770
142 5841 9263
143 6307 2561
144 8696 927
145 9082 3379
146 1401 1319
147 9016 6302
148 7325 8350
149 666 2518
150 7889 4673
151 3833 2753
152 2913 2210
153 9846 5941
154 8958 6690
155 8599 4942
156 7575 7771
157 6488 3487
158 3558 5651
159 7921 3386
160 5870 4734
161 3224 5708
162 5164 3287
163 1969 2761
164 5662 1123
165 6573 2719
166 6346 8226
167 5230 7198
168 2457 7704
169 1824 4521
170 5940 8813
171 9779 6381
172 8374 6000
173 4411 6249
174 44 7394
175 3454 3137
176 282 2274
177 6503 8426
178 23 3646
179 2811 1255
180 9941 2470
181 8859 4656
182 5815 3817
183 7454 9334
184 4793 9743
185 8724 9709
186 548 5165
187 3685 3160
188 6454 3605
189 3237 6933
190 3306 4442
191 9221 4410
192 1467 9883
193 5935 7964
194 7422 4051
195 7686 2138
196 5140 4084
197 6598 2569
198 4547 1757
199 5458 8652
200 4305 9680
EOF
