NAME: tsp_n200_uniform_train_000
TYPE: TSP
DIMENSION: 200
EDGE_WEIGHT_TYPE: EUC_2D
NODE_COORD_SECTION
1 8006 3744
2 8233 9119
3 3255 8865
4 6132 1997
5 9354 2653
6 3987 2209
7 7978 3599
8 643 3702
9 7791 4441
10 8964 359
11 6683 9476
12 1252 118
13 7311 1909
14 171 408
15 1685 6830
16 7433 5007
17 5856 1454
18 9440 7689
19 3309 8136
20 4779 5885
21 456 3066
22 5957 426
23 3272 9749
24 7365 5128
25 6754 4962
26 2785 9265
27 3173 8059
28 1022 4801
29 5133 7221
30 8823 5410
31 776 2189
32 5442 9505
33 8440 8482
34 8253 6477
35 6738 5441
36 7004 1887
37 6374 3715
38 4468 1848
39 1836 4279
40 2589 2439
41 2313 5955
42 919 2478
43 4411 584
44 696 7488
45 4200 74
46 8256 9868
47 2830 4069
48 9028 533
49 4808 6071
50 138 7056
51 8014 733
52 6394 2802
53 795 6737
54 3677 3962
55 883 7524
56 6136 6451
57 7019 9437
58 1947 896
59 1569 7064
60 8104 1590
61 5055 9322
62 4401 1851
63 7437 5886
64 8237 3038
65 3120 5222
66 2610 9291
67 1037 7383
68 6925 8151
69 6017 7631
70 5103 6375
71 6383 4799
72 6059 565
73 6327 4419
74 64 6059
75 1833 1624
76 3618 6157
77 6167 8082
78 6455 6874
79 5025 2297
80 4510 2599
81 8873 9630
82 5125 5328
83 9952 6362
84 8872 5766
85 7913 8395
86 3575 609
87 5968 4184
88 5088 4125
89 6203 8907
90 1006 2605
91 7554 6128
92 9613 3079
93 8758 6018
94 8547 6582
95 6847 6095
96 4274 7913
97 9669 2012
98 9924 3721
99 9946 426
100 2091 8276
101 3255 1378
102 8640 4479
103 2670 4004
104 6127 2626
105 4675 9331
106 3971 3281
107 3443 855
108 5487 3431
109 2623 7831
110 9353 1144
111 1102 1476
112 8022 9408
113 873 6007
114 330 8962
115 4698 2840
116 6605 6399
117 358 4185
118 3108 4525
119 1701 8199
120 4911 778
121 4904 3042
122 3900 96
123 4397 2363
124 2765 6404
125 2484 9939
126 4445 167
127 9382 5411
128 9688 3751
129 4090 1022
130 6334 2259
131 5625 7925
132 4923 3998
133 2653 3279
134 9623 8225
135 3629 6347
136 7251 7052
137 3263 5658
138 5689 5657
139 5908 2937
140 726 208
141 8861 3411
142 2951 7570
143 2447 4937
144 5930 9393
145 9067 3378
146 4001 8808
147 7587 1628
148 4728 7824
149 7396 5130
150 8189 2572
151 2266 7094
152 4962 4946
153 8781 781
154 8060 182
155 4113 2373
156 7948 1133
157 588 2265
158 5684 1965
159 5717 4485
160 5739 7276
161 3034 1400
162 4441 8590
163 8613 6730
164 5599 8431
165 6000 8174
166 9084 9915
167 9623 7246
168 5437 6184
169 1169 9611
170 4586 1408
171 7429 1913
172 9330 3356
173 4570 109
174 1080 624
175 4098 6804
176 3020 7920
177 7642 8277
178 9798 3226
179 6297 5300
180 5723 1293
181 9568 1461
182 5745 3136
183 8807 4758
184 9827 6944
185 8692 1409
186 6424 9342
187 4038 5279
188 972 4867
189 5948 8577
190 467 1012
191 2560 692
192 4423 6603
193 4831 5763
194 7014 6367
195 3517 451
196 2107 3080
197 2486 587
198 1872 8604
199 8796 5941
200 4754 832
EOF
