NAME: tsp_n200_uniform_train_006
TYPE: TSP
DIMENSION: 200
EDGE_WEIGHT_TYPE: EUC_2D
NODE_COORD_SECTION
1 2921 5011
2 7643 8869
3 8061 8765
4 6234 864
5 5322 9993
6 759 7614
7 7346 6379
8 353 3152
9 3099 4108
10 2576 1941
11 6252 7194
12 9614 2710
13 2981 1526
14 324 4748
15 408 2331
16 8711 1018
17 8582 5065
18 4387 760
19 4663 3285
20 2623 8
21 4948 4949
22 6642 529
23 6340 1027
24 4610 9112
25 1810 5314
26 2840 1644
27 9779 1178
28 120 9594
29 5428 964
30 2669 9737
31 9968 2017
32 3265 4206
33 4514 8958
34 8079 4910
35 1605 6748
36 8467 6465
37 6589 3055
38 7318 6645
39 6592 1040
40 8614 4934
41 9125 6395
42 4723 577
43 8802 7312
44 7697 9320
45 4037 7147
46 9396 6693
47 142 8498
48 6122 5383
49 3771 9145
50 5091 3434
51 5208 8785
52 2169 7704
53 5864 248
54 4166 3340
55 3792 5741
56 1053 9959
57 8191 5174
58 9439 9390
59 3955 5155
60 1920 4394
61 9494 5790
62 2790 2776
63 9655 8096
64 4523 6259
65 2711 6174
66 1637 9295
67 4943 2079
68 2582 2209
69 8233 3916
70 7212 5667
71 3976 8661
72 740 9439
73 3463 2751
74 3725 9390
75 223 42
76 8339 7189
77 6898 900
78 6449 2337
79 201 2300
80 1618 6129
81 201 2602
82 6892 2461
83 5052 8569
84 7286 3486
85 7185 2753
86 7480 1136
87 4024 1912
88 5731 8564
89 5555 2053
90 6199 7506
91 1483 6151
92 465 9258
93 3717 9052
94 6544 844
95 9837 3845
96 401 4081
97 9199 2234
98 2098 6137
99 8040 2113
100 7033 8293
101 3393 1748
102 2581 5687
103 2236 9835
104 8279 6669
105 7300 6852
106 3696 3418
107 806 3766
108 3140 473
109 4367 9453
110 8596 637
111 8139 206
112 5919 6517
113 6869 9319
114 2939 4467
115 2671 6428
116 8880 2693
117 9887 760
118 7025 7778
119 3068 3113
120 6133 9170
121 3001 1308
122 7326 7153
123 7204 3500
124 505 5680
125 6580 560
126 8670 3615
127 9374 6163
128 8761 188
129 5096 2681
130 9508 8015
131 112 7994
132 748 7500
133 6522 2129
134 9580 1722
135 7854 6683
136 6053 5552
137 4623 8178
138 1511 7241
139 1003 7609
140 2099 748
141 6442 8704
142 4270 155
143 9027 6533
144 644 7344
145 1260 8809
146 8160 2646
147 4659 3853
148 2888 3925
149 6897 8692
150 9967 7884
151 5812 3533
152 4956 5000
153 6991 5511
154 7490 401
155 4760 4805
156 435 189
157 6325 3410
158 250 400
159 4397 7727
160 8035 9634
161 707 4406
162 8209 4118
163 4647 6752
164 8604 9733
165 9831 6565
166 6547 1290
167 9369 1268
168 8399 7396
169 2754 7591
170 3429 8904
171 554 1558
172 1100 5914
173 483 7688
174 1827 3701
175 3673 5801
176 640 5392
177 3401 1513
178 7192 6890
179 2878 2430
180 4118 5105
181 7856 652
182 6850 4655
183 214 9277
184 8898 565
185 898 351
186 648 7092
187 3136 1526
188 9732 3628
189 8549 6470
190 3164 8150
191 8155 960
192 4704 2296
193 5698 4619
194 4235 4353
195 2527 1290
196 9207 3190
197 949 8398
198 6329 1462
199 9733 1707
200 6483 8848
EOF
