NAME: tsp_n200_uniform_train_003
TYPE: TSP
DIMENSION: 200
EDGE_WEIGHT_TYPE: EUC_2D
NODE_COORD_SECTION
1 4821 504
2 7966 9605
3 3034 4232
4 6356 9585
5 7326 4741
6 3152 5481
7 9114 6854
8 3676 2213
9 209 2150
10 8770 6117
11 9716 1492
12 6355 3515
13 8086 26
14 7201 2833
15 8928 433
16 6838 2079
17 7055 5839
18 6730 6576
19 1089 7751
20 4761 7167
21 812 9956
22 6129 5713
23 7251 5106
24 5479 2544
25 1588 9377
26 1601 4783
27 842 1936
28 3797 73
29 5405 2164
30 8815 4302
31 4251 7718
32 5601 7863
33 9642 8592
34 7336 6498
35 5040 568
36 9857 3931
37 8438 2838
38 8952 5393
39 5437 5100
40 7674 7750
41 9781 6489
42 3295 2535
43 9845 6391
44 8216 8170
45 6726 8768
46 7542 6932
47 3237 6203
48 864 3662
49 5368 5384
50 5970 1258
51 8687 8438
52 2836 9553
53 5840 1139
54 5873 9245
55 4361 6087
56 9133 3878
57 7975 6087
58 1052 838
59 7399 805
60 3882 8020
61 1040 8738
62 680 8404
63 4634 9055
64 5657 8787
65 7952 7189
66 5152 8215
67 3263 5830
68 8379 1661
69 8709 5856
70 3970 2339
71 9099 8095
72 2329 580
73 8580 561
74 7290 1001
75 6232 9350
76 9399 4127
77 1611 6853
78 4388 493
79 7641 32
80 7586 334
81 3256 5018
82 2168 1541
83 9337 3996
84 2746 1853
85 4313 6570
86 873 6805
87 6223 9694
88 8010 8319
89 7386 519
90 875 8501
91 7899 6828
92 821 2093
93 4430 1343
94 2104 4857
95 2746 4214
96 1652 19
97 7661 6538
98 4459 9415
99 5608 4158
100 4778 9180
101 5138 910
102 2483 1152
103 9938 9810
104 9714 5846
105 5734 6561
106 2270 553
107 7117 4979
108 2444 5489
109 7462 6258
110 2628 8889
111 5621 1973
112 2068 3908
113 3668 5986
114 5958 5789
115 6983 4844
116 839 6286
117 3634 297
118 8958 3205
119 3058 3765
120 6059 2348
121 4083 7726
122 3496 7383
123 3484 7491
124 6704 5358
125 8163 6533
126 1596 7478
127 748 2787
128 8043 2642
129 3722 1379
130 2172 4123
131 6981 1743
132 8287 1333
133 3442 8433
134 5239 5027
135 6810 6965
136 669 9778
137 9752 5376
138 7590 276
139 1573 4791
140 3465 4426
141 135 1387
142 8077 9147
143 4739 643
144 8856 4473
145 1022 9456
146 7564 3637
147 1442 2647
148 4018 4934
149 524 9124
150 187 7770
151 6725 992
152 8505 3931
153 1039 8569
154 5495 6413
155 3224 9619
156 4235 1887
157 833 9449
158 7521 7546
159 8047 3055
160 2638 5937
161 8999 8679
162 9267 9632
163 5398 2654
164 4939 108
165 6316 6458
166 3833 8234
167 6668 8853
168 1600 1652
169 184 1449
170 9456 6251
171 1721 1530
172 3996 1369
173 3277 3995
174 9507 2324
175 131 2043
176 7610 3794
177 974 2830
178 6096 7888
179 5531 4186
180 8126 6566
181 3280 1287
182 6201 1857
183 7773 4611
184 628 1256
185 6636 5513
186 1623 6851
187 653 7680
188 477 3930
189 23 8962
190 6131 8580
191 5942 8107
192 5925 8692
193 732 8821
194 6044 5311
195 5655 8450
196 5045 4469
197 47 2976
198 3204 3045
199 6107 6965
200 2184 87
EOF
