NAME: tsp_n200_uniform_train_015
TYPE: TSP
DIMENSION: 200
EDGE_WEIGHT_TYPE: EUC_2D
NODE_COORD_SECTION
1 5331 1027
2 2860 141
3 2359 3493
4 301 964
5 3724 9426
6 8233 433
7 5391 8644
8 7921 7440
9 7991 6925
10 5285 6548
11 2310 4186
12 5575 6848
13 1370 1907
14 851 3038
15 6149 7220
16 6493 1935
17 1256 3416
18 2111 7585
19 1537 9156
20 2762 8449
21 6574 9160
22 6330 8208
23 9936 2190
24 171 673
25 7888 3000
26 7148 8538
27 5400 6754
28 2131 3844
29 1012 4
30 6277 5239
31 2976 3429
32 4594 9668
33 6739 1102
34 1726 4341
35 10 3455
36 2490 4209
37 6150 8725
38 6488 9269
39 9490 7701
40 3772 6624
41 8309 9875
42 4620 4155
43 8589 2555
44 1084 392
45 8877 3422
46 2225 7328
47 3976 7098
48 3256 3736
49 3398 5025
50 1423 3168
51 3146 7305
52 5342 6988
53 5027 6049
54 1328 4355
55 2450 4349
56 4619 214
57 1095 6703
58 1876 2655
59 1002 7351
60 8013 8759
61 7765 5777
62 639 9105
63 6050 887
64 5962 6589
65 5086 7550
66 1298 8908
67 4420 1035
68 714 9101
69 6621 4842
70 3977 3162
71 5157 3473
72 1207 6035
73 3527 9442
74 7357 2214
75 5669 9145
76 2280 4950
77 5554 5003
78 1192 1872
79 6603 4125
80 5558 5092
81 3797 2111
82 6110 2725
83 9178 4543
84 9271 2968
85 9795 7693
86 1205 4572
87 3758 3535
88 983 6237
89 6654 8642
90 621 9115
91 7149 8459
92 670 5871
93 8196 811
94 1702 2735
95 3828 6634
96 4773 4717
97 9643 4309
98 6520 5773
99 1527 1043
100 6309 6566
101 768 7675
102 579 7888
103 1895 5887
104 7067 5341
105 9958 5623
106 1817 5568
107 745 7929
108 8590 6766
109 8373 7097
110 3573 5928
111 8117 2433
112 6550 2329
113 155 3350
114 9067 5024
115 4699 4074
116 3517 1426
117 4358 5706
118 2671 6702
119 6079 8995
120 1484 6471
121 421 6767
122 8584 6297
123 4952 9663
124 6472 6076
125 6612 3844
126 8795 9818
127 421 7633
128 998 9243
129 6433 6923
130 3165 7670
131 6689 7996
132 5216 6212
133 5426 7742
134 3209 6599
135 3700 4695
136 9004 5165
137 650 9319
138 990 25
139 8798 7153
140 1026 4905
141 3203 3544
142 5986 7432
143 9303 4073
144 2510 328
145 7280 5318
146 9438 5567
147 1652 3216
148 3304 4520
149 9817 575
150 7778 3746
151 2765 8303
152 5669 552
153 2795 460
154 7467 562
155 3364 562
156 610 8874
157 1909 4007
158 4047 1614
159 420 7602
160 8225 487
161 7847 65
162 182 738
163 3950 4570
164 8765 8601
165 23 3289
166 8515 9350
167 7540 8654
168 2740 2589
169 2357 99
170 5968 8231
171 6852 7112
172 8532 2193
173 5463 5809
174 8806 7207
175 8078 6349
176 2130 9499
177 6200 3778
178 6284 2255
179 226 1997
180 283 9313
181 4164 3534
182 6254 5002
183 4704 3096
184 2543 36
185 9793 4725
186 9100 6134
187 7520 2033
188 1677 8973
189 2395 741
190 5031 6801
191 8168 4204
192 1625 6412
193 4712 796
194 333 5387
195 9857 8574
196 9115 956
197 5049 4939
198 5203 1342
199 6794 5061
200 9251 2009
EOF
