NAME: cvrp_uniform_n50_tight_smoke_000-k8
TYPE: CVRP
DIMENSION: 50
EDGE_WEIGHT_TYPE: EUC_2D
CAPACITY: 35
NODE_COORD_SECTION
1 1420 807
2 2767 5978
3 7212 308
4 1253 523
5 7970 8867
6 8189 555
7 7219 4804
8 8672 2463
9 5949 3611
10 285 3798
11 5451 1979
12 2936 3974
13 6152 1239
14 453 2726
15 5465 7262
16 7993 2550
17 2218 2046
18 6701 661
19 1999 6099
20 5780 6148
21 6138 4480
22 7690 5877
23 2904 4182
24 7986 1601
25 7002 1949
26 5840 2068
27 5312 5012
28 6904 4513
29 3579 2993
30 8562 4701
31 9168 1405
32 6876 2843
33 4529 8665
34 3068 5168
35 4835 4955
36 3735 4817
37 3153 1609
38 2650 3859
39 1793 3082
40 3753 4691
41 2280 8030
42 5251 2157
43 1582 1111
44 785 6810
45 6838 9250
46 6517 1372
47 5722 8533
48 6912 8998
49 4095 4705
50 6382 3304
DEMAND_SECTION
1 0
2 3
3 6
4 6
5 4
6 1
7 9
8 1
9 3
10 4
11 7
12 2
13 7
14 9
15 2
16 1
17 10
18 10
19 4
20 4
21 3
22 8
23 6
24 1
25 10
26 2
27 9
28 5
29 2
30 6
31 3
32 2
33 1
34 8
35 2
36 7
37 10
38 7
39 5
40 9
41 3
42 4
43 8
44 2
45 5
46 4
47 9
48 5
49 4
50 9
DEPOT_SECTION
1
-1
EOF
