NAME: cvrp_n50_uniform_train_004-k10
TYPE: CVRP
DIMENSION: 50
EDGE_WEIGHT_TYPE: EUC_2D
CAPACITY: 38
NODE_COORD_SECTION
1 4611 2846
2 4216 2484
3 3084 3458
4 2035 6593
5 1390 3802
6 3260 5374
7 9815 8543
8 2650 4383
9 1081 2613
10 6522 1301
11 1075 8067
12 5956 1832
13 700 9520
14 8097 9521
15 6188 8140
16 4193 7357
17 7512 2671
18 6418 8843
19 3954 9787
20 9546 80
21 7524 3661
22 6542 7966
23 2552 8887
24 6860 2784
25 2968 866
26 1889 6962
27 8685 4324
28 3239 4572
29 2838 448
30 824 610
31 9007 9488
32 498 4344
33 126 4466
34 399 4240
35 8472 6382
36 9209 2776
37 9158 4125
38 6983 7155
39 414 3057
40 8595 5863
41 3377 4038
42 9173 8134
43 4821 7979
44 7482 6646
45 7956 8384
46 9116 5098
47 283 4467
48 463 3409
49 1297 1164
50 5679 4331
DEMAND_SECTION
1 0
2 7
3 10
4 5
5 2
6 1
7 8
8 4
9 6
10 5
11 10
12 3
13 4
14 5
15 9
16 2
17 3
18 7
19 3
20 3
21 4
22 1
23 7
24 1
25 6
26 8
27 4
28 10
29 6
30 5
31 10
32 10
33 10
34 9
35 1
36 4
37 8
38 8
39 4
40 7
41 4
42 5
43 1
44 3
45 8
46 4
47 2
48 9
49 1
50 1
DEPOT_SECTION
1
-1
EOF
