NAME: cvrp_n50_uniform_train_019-k10
TYPE: CVRP
DIMENSION: 50
EDGE_WEIGHT_TYPE: EUC_2D
CAPACITY: 42
NODE_COORD_SECTION
1 2010 1118
2 8501 5596
3 4400 7873
4 4798 7935
5 3256 727
6 2541 8747
7 8205 9975
8 7033 8985
9 2472 2323
10 9638 944
11 9233 8861
12 7579 7035
13 1365 2896
14 3464 7842
15 2328 9185
16 3763 588
17 206 6351
18 3313 1376
19 5722 6167
20 8090 5606
21 294 3675
22 3375 1131
23 4436 2650
24 5419 418
25 7979 3322
26 7479 3103
27 4416 3254
28 177 3306
29 4100 4287
30 1378 3008
31 2313 2731
32 4868 5193
33 1850 7955
34 4492 4521
35 2208 5930
36 7192 2389
37 7065 2050
38 4281 4893
39 4519 402
40 1592 6457
41 5337 3304
42 6596 1214
43 9251 6970
44 8854 4332
45 9864 9925
46 3687 655
47 9024 5497
48 9635 6651
49 59 1422
50 225 3611
DEMAND_SECTION
1 0
2 10
3 1
4 10
5 6
6 8
7 10
8 2
9 7
10 9
11 6
12 3
13 9
14 1
15 1
16 8
17 2
18 9
19 6
20 3
21 4
22 3
23 7
24 6
25 3
26 6
27 8
28 1
29 9
30 4
31 9
32 8
33 8
34 1
35 9
36 2
37 10
38 7
39 6
40 3
41 8
42 10
43 9
44 5
45 5
46 5
47 4
48 2
49 8
50 3
DEPOT_SECTION
1
-1
EOF
