NAME: cvrp_n50_uniform_train_018-k10
TYPE: CVRP
DIMENSION: 50
EDGE_WEIGHT_TYPE: EUC_2D
CAPACITY: 39
NODE_COORD_SECTION
1 6329 7414
2 4981 9008
3 2805 2954
4 8856 5458
5 5671 7072
6 3937 7944
7 418 4960
8 1895 2409
9 1887 6853
10 6110 7879
11 2279 8695
12 6607 8352
13 8812 2748
14 2510 7115
15 4873 4910
16 6986 7384
17 6621 8262
18 3056 7334
19 4908 5520
20 8173 3652
21 271 2667
22 7765 4052
23 6253 565
24 7411 2862
25 2976 9049
26 325 1689
27 2120 6053
28 1284 3325
29 292 2412
30 9443 7843
31 2954 186
32 9731 6598
33 6128 7123
34 5988 1722
35 8885 6459
36 6428 2320
37 7970 4762
38 1771 2427
39 6934 5655
40 1715 3746
41 748 8406
42 7209 4459
43 7191 530
44 640 6410
45 2053 4781
46 7415 799
47 2966 3692
48 8567 1743
49 1767 2096
50 7316 7004
DEMAND_SECTION
1 0
2 6
3 4
4 6
5 10
6 1
7 1
8 7
9 4
10 8
11 2
12 3
13 6
14 1
15 10
16 2
17 8
18 4
19 10
20 4
21 10
22 6
23 6
24 7
25 8
26 10
27 2
28 8
29 7
30 9
31 2
32 9
33 6
34 7
35 4
36 3
37 5
38 4
39 3
40 10
41 3
42 5
43 6
44 2
45 2
46 8
47 1
48 1
49 7
50 5
DEPOT_SECTION
1
-1
EOF
