NAME: cvrp_n50_uniform_train_011-k10
TYPE: CVRP
DIMENSION: 50
EDGE_WEIGHT_TYPE: EUC_2D
CAPACITY: 46
NODE_COORD_SECTION
1 5224 3903
2 4752 2638
3 7024 7229
4 3763 7298
5 4789 9152
6 9949 9425
7 2320 773
8 6834 8077
9 5445 1375
10 6914 7655
11 1704 4745
12 4526 4360
13 2776 2615
14 9368 6370
15 5956 9379
16 2665 6103
17 480 7735
18 7916 4682
19 196 3250
20 187 3665
21 4025 9697
22 7248 2154
23 1482 4982
24 6952 5362
25 1742 3404
26 3374 1590
27 7161 6991
28 4234 6204
29 6139 6370
30 7642 7923
31 994 1216
32 9703 2009
33 4113 5950
34 9513 6107
35 1349 9437
36 8034 4105
37 3927 112
38 4605 7922
39 636 5900
40 3348 5692
41 2644 4316
42 3010 5453
43 5036 5549
44 5267 6873
45 7159 5367
46 755 3264
47 8897 3955
48 7133 9775
49 5689 436
50 1185 1505
DEMAND_SECTION
1 0
2 9
3 7
4 2
5 10
6 10
7 6
8 4
9 6
10 2
11 8
12 2
13 1
14 9
15 3
16 9
17 10
18 4
19 7
20 7
21 1
22 8
23 7
24 9
25 5
26 2
27 9
28 6
29 9
30 6
31 9
32 7
33 10
34 10
35 6
36 8
37 3
38 1
39 3
40 6
41 4
42 10
43 10
44 10
45 9
46 9
47 1
48 8
49 1
50 5
DEPOT_SECTION
1
-1
EOF
