NAME: cvrp_n50_uniform_train_002-k10
TYPE: CVRP
DIMENSION: 50
EDGE_WEIGHT_TYPE: EUC_2D
CAPACITY: 39
NODE_COORD_SECTION
1 6165 2955
2 6918 8373
3 1129 2998
4 5636 8432
5 2509 5405
6 5011 4030
7 6225 6438
8 5018 9344
9 1581 9086
10 9950 9344
11 3917 4640
12 60 1532
13 6698 3726
14 7999 3237
15 7029 8679
16 7081 8659
17 1800 4090
18 643 1578
19 3032 1775
20 6520 1394
21 2220 9133
22 9388 4210
23 6440 6539
24 2080 8714
25 2628 324
26 5395 1434
27 7129 3326
28 3219 7086
29 8484 7186
30 3006 526
31 6823 5611
32 3754 441
33 9671 3167
34 722 2978
35 9192 3834
36 866 9011
37 8930 1039
38 2208 2864
39 6906 5776
40 7085 5250
41 5234 8011
42 1030 723
43 7593 1562
44 3940 3242
45 8543 5090
46 9852 2836
47 5907 2041
48 1851 7672
49 4085 4182
50 949 1146
DEMAND_SECTION
1 0
2 9
3 1
4 8
5 4
6 8
7 6
8 6
9 10
10 7
11 3
12 8
13 7
14 4
15 3
16 8
17 1
18 2
19 6
20 10
21 5
22 4
23 10
24 6
25 4
26 9
27 2
28 1
29 4
30 10
31 5
32 5
33 7
34 4
35 2
36 1
37 5
38 5
39 4
40 7
41 4
42 10
43 4
44 2
45 7
46 1
47 1
48 7
49 8
50 6
DEPOT_SECTION
1
-1
EOF
