NAME: cvrp_n50_uniform_train_008-k10
TYPE: CVRP
DIMENSION: 50
EDGE_WEIGHT_TYPE: EUC_2D
CAPACITY: 43
NODE_COORD_SECTION
1 424 4125
2 454 4047
3 9304 2509
4 3929 4151
5 2184 1249
6 601 2156
7 9115 5135
8 1001 4048
9 3913 292
10 8925 3119
11 1087 682
12 1464 2951
13 7047 9929
14 9950 9078
15 5014 3738
16 8778 3347
17 5724 8816
18 1592 9976
19 6447 6923
20 7502 1988
21 6605 608
22 88 9184
23 9921 1445
24 1746 5705
25 1306 2849
26 2228 8106
27 4236 9148
28 2491 6158
29 8029 3549
30 7770 7352
31 2241 6677
32 1478 9066
33 2929 9428
34 6953 1193
35 9971 54
36 8379 5580
37 3406 8385
38 2466 6936
39 3338 9263
40 5695 6423
41 4603 1868
42 4039 6247
43 5495 7994
44 3227 4691
45 9408 2051
46 212 5075
47 7806 4839
48 7836 4434
49 30 5141
50 6371 4665
DEMAND_SECTION
1 0
2 1
3 6
4 8
5 8
6 7
7 10
8 10
9 8
10 2
11 10
12 10
13 7
14 7
15 3
16 9
17 3
18 8
19 9
20 2
21 9
22 7
23 3
24 7
25 9
26 3
27 6
28 7
29 6
30 3
31 4
32 10
33 4
34 4
35 5
36 4
37 8
38 6
39 1
40 4
41 3
42 9
43 2
44 7
45 2
46 10
47 9
48 3
49 4
50 4
DEPOT_SECTION
1
-1
EOF
