NAME: cvrp_n50_uniform_train_003-k10
TYPE: CVRP
DIMENSION: 50
EDGE_WEIGHT_TYPE: EUC_2D
CAPACITY: 42
NODE_COORD_SECTION
1 5687 6449
2 9007 2622
3 3080 5346
4 8378 2694
5 6124 5236
6 5192 4636
7 5385 1419
8 8862 724
9 696 1847
10 1153 6510
11 6700 3888
12 1220 1328
13 2113 801
14 3763 6620
15 1043 7876
16 4782 4466
17 6712 5189
18 2300 3342
19 3792 8892
20 5492 5666
21 3191 3141
22 5611 1452
23 9279 3583
24 7218 7742
25 7752 2868
26 714 4408
27 181 2358
28 1208 2051
29 5714 3505
30 7470 7652
31 9863 985
32 7532 9433
33 5750 356
34 4808 9026
35 8844 698
36 3425 5757
37 404 8352
38 1307 9196
39 4820 2892
40 8962 1227
41 1349 7170
42 5058 7492
43 8376 4882
44 3067 1365
45 6364 8199
46 4165 3107
47 8240 7636
48 4883 9797
49 9780 3796
50 6878 2077
DEMAND_SECTION
1 0
2 8
3 9
4 2
5 4
6 1
7 10
8 3
9 5
10 10
11 7
12 2
13 4
14 2
15 4
16 5
17 8
18 6
19 6
20 6
21 9
22 9
23 5
24 9
25 10
26 1
27 5
28 8
29 9
30 1
31 8
32 3
33 8
34 9
35 10
36 9
37 1
38 2
39 4
40 1
41 8
42 4
43 5
44 10
45 1
46 6
47 8
48 6
49 7
50 5
DEPOT_SECTION
1
-1
EOF
