NAME: cvrp_n50_uniform_train_009-k10
TYPE: CVRP
DIMENSION: 50
EDGE_WEIGHT_TYPE: EUC_2D
CAPACITY: 44
NODE_COORD_SECTION
1 7918 6316
2 3053 6064
3 1665 6319
4 4957 7223
5 2636 6904
6 9013 276
7 4445 8329
8 2370 1345
9 6831 970
10 2491 7236
11 6425 7192
12 7522 3505
13 2011 2498
14 2202 9119
15 8057 3581
16 8654 3995
17 7316 96
18 2116 9424
19 8317 8254
20 4506 2926
21 3482 6957
22 1171 6859
23 2117 7638
24 8547 4009
25 5636 2851
26 1064 3206
27 436 9272
28 7154 4176
29 4320 2567
30 9876 3640
31 9776 8022
32 185 2447
33 9237 9352
34 8617 6846
35 2868 3701
36 7155 5541
37 8240 751
38 9658 2639
39 9360 3845
40 144 1442
41 8979 6625
42 632 3389
43 2357 2395
44 3893 214
45 2386 823
46 5657 2653
47 1305 1440
48 7724 6408
49 4223 1861
50 629 2682
DEMAND_SECTION
1 0
2 7
3 9
4 3
5 10
6 10
7 1
8 7
9 6
10 2
11 3
12 3
13 9
14 4
15 1
16 4
17 3
18 6
19 3
20 3
21 6
22 3
23 10
24 5
25 9
26 7
27 9
28 10
29 1
30 9
31 8
32 9
33 9
34 8
35 8
36 5
37 10
38 7
39 9
40 1
41 6
42 7
43 6
44 10
45 10
46 8
47 6
48 6
49 1
50 1
DEPOT_SECTION
1
-1
EOF
