NAME: cvrp_n50_uniform_train_012-k10
TYPE: CVRP
DIMENSION: 50
EDGE_WEIGHT_TYPE: EUC_2D
CAPACITY: 43
NODE_COORD_SECTION
1 7408 3417
2 5941 7015
3 252 9220
4 9677 1034
5 4468 7867
6 6700 4047
7 9283 3682
8 9223 8860
9 4748 9343
10 3620 4774
11 2659 6506
12 1390 1968
13 2632 5350
14 7239 6524
15 6800 9323
16 3737 609
17 4305 502
18 520 858
19 7115 2214
20 89 9842
21 9144 2242
22 4915 9852
23 9515 757
24 3540 9418
25 9774 3452
26 1354 5138
27 8143 6683
28 3050 2552
29 2465 9187
30 8818 7608
31 3569 7864
32 2610 6167
33 2685 8333
34 9327 5868
35 8181 8433
36 346 2227
37 4590 6595
38 5383 1432
39 3394 128
40 846 3672
41 2139 8268
42 4431 4295
43 6040 2238
44 5071 396
45 6132 1485
46 9149 5574
47 4234 7826
48 8222 7368
49 6697 2773
50 9350 6900
DEMAND_SECTION
1 0
2 4
3 10
4 4
5 10
6 5
7 1
8 4
9 9
10 2
11 6
12 10
13 4
14 5
15 10
16 4
17 7
18 5
19 2
20 7
21 2
22 7
23 9
24 10
25 10
26 2
27 6
28 1
29 10
30 7
31 1
32 6
33 10
34 10
35 4
36 2
37 6
38 10
39 9
40 8
41 4
42 3
43 7
44 9
45 9
46 1
47 10
48 2
49 2
50 1
DEPOT_SECTION
1
-1
EOF
