NAME: cvrp_n50_uniform_train_006-k10
TYPE: CVRP
DIMENSION: 50
EDGE_WEIGHT_TYPE: EUC_2D
CAPACITY: 45
NODE_COORD_SECTION
1 8584 8840
2 6352 5088
3 2910 6253
4 9316 4704
5 7300 3612
6 3863 4767
7 2529 1518
8 3078 7005
9 1757 1023
10 2649 4942
11 8350 911
12 3429 7623
13 9935 3852
14 509 5767
15 9652 1922
16 3662 2958
17 7058 3184
18 4030 6060
19 2466 6315
20 4495 7676
21 2239 6096
22 6696 6065
23 6335 6459
24 4944 360
25 1724 9107
26 7183 1775
27 4399 3507
28 7661 5215
29 8400 9444
30 1245 6921
31 1449 8496
32 200 324
33 818 7732
34 8081 459
35 9942 137
36 3789 4422
37 6119 3544
38 910 8544
39 7264 6097
40 521 9617
41 6060 3596
42 1501 7093
43 6177 1780
44 5489 8719
45 9108 7507
46 952 9410
47 3267 9166
48 2617 9820
49 2210 3797
50 3948 8527
DEMAND_SECTION
1 0
2 10
3 8
4 6
5 6
6 3
7 9
8 6
9 10
10 2
11 8
12 7
13 8
14 10
15 4
16 6
17 7
18 7
19 3
20 4
21 8
22 6
23 4
24 8
25 9
26 4
27 10
28 3
29 7
30 10
31 7
32 3
33 8
34 10
35 7
36 10
37 4
38 3
39 7
40 1
41 9
42 3
43 3
44 3
45 2
46 7
47 3
48 8
49 3
50 6
DEPOT_SECTION
1
-1
EOF
