NAME: cvrp_n50_uniform_train_007-k10
TYPE: CVRP
DIMENSION: 50
EDGE_WEIGHT_TYPE: EUC_2D
CAPACITY: 36
NODE_COORD_SECTION
1 7220 4
2 9195 4204
3 1871 9771
4 6197 5260
5 4623 2466
6 5279 9681
7 7269 4091
8 4586 8606
9 9818 5433
10 8099 2635
11 3450 1468
12 2557 1415
13 4028 7662
14 5206 9931
15 6668 8188
16 2585 1742
17 8845 6052
18 3144 7517
19 4001 8300
20 3590 6853
21 493 8751
22 9693 4574
23 4772 7408
24 7139 3608
25 2378 9158
26 8188 6303
27 5067 4756
28 9593 3001
29 3715 6096
30 4695 1766
31 7215 2175
32 3611 8297
33 5707 4317
34 5282 4455
35 9099 5104
36 8977 2148
37 6935 6102
38 9636 9585
39 5398 6408
40 4981 5961
41 8105 9935
42 4316 7157
43 1150 6368
44 2017 8413
45 476 5875
46 3122 3409
47 6101 1992
48 6804 8928
49 622 4620
50 156 3563
DEMAND_SECTION
1 0
2 5
3 3
4 6
5 3
6 10
7 9
8 3
9 1
10 4
11 1
12 3
13 7
14 4
15 4
16 7
17 10
18 8
19 10
20 3
21 4
22 5
23 10
24 2
25 7
26 1
27 6
28 4
29 8
30 2
31 1
32 5
33 1
34 7
35 4
36 2
37 5
38 10
39 8
40 3
41 10
42 6
43 3
44 7
45 9
46 8
47 1
48 1
49 1
50 1
DEPOT_SECTION
1
-1
EOF
