NAME: cvrp_n50_uniform_train_016-k10
TYPE: CVRP
DIMENSION: 50
EDGE_WEIGHT_TYPE: EUC_2D
CAPACITY: 38
NODE_COORD_SECTION
1 9322 2783
2 5557 7047
3 5788 128
4 1340 2718
5 6282 4687
6 417 2728
7 3387 7605
8 6889 23
9 9109 9814
10 9971 3680
11 773 4495
12 9557 2899
13 1636 1221
14 8940 2918
15 5817 6695
16 4139 6150
17 8036 824
18 1845 2819
19 8311 8692
20 3828 4814
21 1988 9122
22 5506 8303
23 5321 4038
24 687 2041
25 2874 9025
26 7381 7894
27 3296 5945
28 1191 7697
29 1588 4660
30 5790 886
31 6865 6614
32 6738 8886
33 4732 5434
34 7019 1467
35 7990 7635
36 1404 3893
37 9432 3873
38 5526 9571
39 6002 8124
40 9971 6909
41 2918 2432
42 4470 3313
43 470 4693
44 5982 6733
45 9160 4216
46 7213 270
47 4259 6995
48 8721 6292
49 7756 2187
50 98 568
DEMAND_SECTION
1 0
2 3
3 8
4 8
5 5
6 3
7 4
8 1
9 4
10 3
11 6
12 2
13 2
14 1
15 9
16 10
17 9
18 5
19 3
20 7
21 2
22 6
23 5
24 1
25 5
26 8
27 7
28 9
29 7
30 2
31 7
32 5
33 6
34 6
35 5
36 5
37 3
38 8
39 3
40 5
41 2
42 8
43 8
44 10
45 6
46 7
47 3
48 10
49 3
50 3
DEPOT_SECTION
1
-1
EOF
