NAME: cvrp_n50_uniform_train_014-k10
TYPE: CVRP
DIMENSION: 50
EDGE_WEIGHT_TYPE: EUC_2D
CAPACITY: 44
NODE_COORD_SECTION
1 6939 6352
2 7383 9315
3 4566 9644
4 2664 2094
5 5507 8367
6 6704 8245
7 3992 6208
8 1966 8983
9 8909 5283
10 5370 9353
11 3647 2726
12 9892 5870
13 9729 2057
14 4045 1134
15 6686 2794
16 3215 9942
17 1710 2845
18 3981 3236
19 8347 4445
20 4209 7417
21 9211 517
22 2368 3016
23 1352 8976
24 843 3113
25 4077 8133
26 5712 9156
27 7858 296
28 714 2913
29 9111 2046
30 4201 4279
31 4019 2020
32 7691 5274
33 5471 5014
34 527 4038
35 9127 2093
36 794 2533
37 3942 3203
38 438 7624
39 7125 8486
40 9583 4231
41 7459 3261
42 974 4757
43 6884 5406
44 7187 1185
45 7226 4508
46 6296 266
47 5990 5367
48 8276 3983
49 9805 5598
50 8940 3758
DEMAND_SECTION
1 0
2 7
3 1
4 2
5 2
6 3
7 7
8 1
9 6
10 10
11 5
12 6
13 5
14 6
15 6
16 6
17 6
18 4
19 9
20 3
21 7
22 10
23 2
24 7
25 7
26 6
27 7
28 6
29 5
30 10
31 10
32 8
33 10
34 7
35 8
36 8
37 1
38 6
39 2
40 5
41 6
42 6
43 6
44 4
45 10
46 10
47 9
48 9
49 2
50 10
DEPOT_SECTION
1
-1
EOF
