NAME: cvrp_n50_uniform_train_015-k10
TYPE: CVRP
DIMENSION: 50
EDGE_WEIGHT_TYPE: EUC_2D
CAPACITY: 33
NODE_COORD_SECTION
1 237 4848
2 2564 6760
3 7413 6833
4 5818 4583
5 8500 4127
6 4682 1847
7 3685 6576
8 8550 5467
9 8203 8367
10 8456 6485
11 5728 9000
12 246 1217
13 8076 2533
14 376 3087
15 8519 903
16 8787 620
17 8924 5708
18 8750 6870
19 9794 5612
20 9896 3143
21 7316 9511
22 1576 4687
23 7090 5580
24 5580 1672
25 196 5447
26 9664 624
27 5089 5965
28 1865 6263
29 8927 7033
30 2816 582
31 3677 3446
32 6302 6529
33 4964 4228
34 5864 3935
35 2360 3438
36 2938 1889
37 13 147
38 6657 7949
39 1260 9447
40 5757 9001
41 5353 451
42 297 7914
43 8736 1921
44 8541 5898
45 1737 3532
46 2913 776
47 3805 1904
48 3930 489
49 2938 1888
50 8840 3131
DEMAND_SECTION
1 0
2 2
3 5
4 2
5 1
6 1
7 1
8 8
9 2
10 4
11 9
12 2
13 4
14 2
15 1
16 5
17 10
18 4
19 10
20 1
21 5
22 3
23 10
24 1
25 9
26 5
27 6
28 8
29 5
30 6
31 6
32 2
33 3
34 4
35 4
36 9
37 7
38 6
39 10
40 5
41 4
42 2
43 5
44 1
45 1
46 10
47 2
48 3
49 3
50 3
DEPOT_SECTION
1
-1
EOF
