NAME: cvrp_n50_uniform_train_017-k10
TYPE: CVRP
DIMENSION: 50
EDGE_WEIGHT_TYPE: EUC_2D
CAPACITY: 42
NODE_COORD_SECTION
1 1726 9984
2 2284 2944
3 3418 9652
4 564 6448
5 5727 2723
6 9083 8966
7 5849 2279
8 7227 2175
9 417 5016
10 2376 6111
11 6172 3302
12 9716 1440
13 627 1479
14 8255 7837
15 224 9445
16 1934 4664
17 9302 9369
18 1031 2645
19 6150 7829
20 5420 5024
21 6813 1430
22 2167 9695
23 3774 9984
24 3025 6153
25 2333 9971
26 9629 797
27 928 2183
28 5490 2135
29 3190 7584
30 4545 9577
31 2016 9986
32 9637 3730
33 3268 4260
34 7785 5467
35 6084 4161
36 1977 4353
37 4432 3790
38 2256 7340
39 9213 928
40 8912 4747
41 2104 9955
42 2611 3629
43 4743 1827
44 1894 5328
45 8882 2149
46 4568 4532
47 4174 2106
48 3863 3480
49 4763 6415
50 6110 9036
DEMAND_SECTION
1 0
2 9
3 8
4 2
5 3
6 2
7 8
8 6
9 7
10 10
11 6
12 9
13 10
14 1
15 1
16 1
17 1
18 8
19 7
20 4
21 9
22 9
23 9
24 2
25 6
26 8
27 2
28 10
29 9
30 4
31 10
32 3
33 3
34 10
35 3
36 8
37 5
38 1
39 6
40 10
41 9
42 2
43 8
44 4
45 9
46 10
47 1
48 1
49 4
50 5
DEPOT_SECTION
1
-1
EOF
