NAME: cvrp_n50_uniform_train_013-k10
TYPE: CVRP
DIMENSION: 50
EDGE_WEIGHT_TYPE: EUC_2D
CAPACITY: 42
NODE_COORD_SECTION
1 3405 1378
2 4231 1639
3 2440 903
4 8184 7817
5 3473 7916
6 8374 7001
7 302 1868
8 4506 2466
9 4021 6107
10 8333 9416
11 8173 5355
12 4207 4262
13 8278 8406
14 3321 868
15 7450 8007
16 8361 2098
17 9035 3824
18 7450 9749
19 3773 1242
20 1477 1490
21 3043 7236
22 5521 67
23 878 4184
24 8007 8882
25 4782 3451
26 7182 4363
27 2134 7004
28 2921 775
29 3273 6212
30 6959 1383
31 5506 5905
32 9395 9194
33 7336 253
34 1441 4312
35 8112 9898
36 1227 6979
37 3409 2215
38 517 7905
39 5885 4259
40 7423 5663
41 1216 9373
42 8996 3705
43 3619 6735
44 9595 6362
45 8204 9053
46 1691 2598
47 158 2682
48 5669 2465
49 343 2206
50 1960 3039
DEMAND_SECTION
1 0
2 9
3 9
4 6
5 9
6 4
7 10
8 3
9 8
10 10
11 2
12 1
13 4
14 1
15 6
16 8
17 10
18 2
19 4
20 1
21 4
22 5
23 7
24 8
25 1
26 5
27 1
28 7
29 2
30 9
31 8
32 2
33 5
34 4
35 7
36 3
37 8
38 6
39 10
40 5
41 5
42 10
43 9
44 6
45 2
46 6
47 7
48 9
49 7
50 7
DEPOT_SECTION
1
-1
EOF
