NAME: cvrp_n50_uniform_train_005-k10
TYPE: CVRP
DIMENSION: 50
EDGE_WEIGHT_TYPE: EUC_2D
CAPACITY: 40
NODE_COORD_SECTION
1 2435 1130
2 9967 1663
3 5163 7236
4 2527 3925
5 5942 3380
6 3387 2989
7 9480 2167
8 1301 3467
9 8376 8728
10 9641 8509
11 5466 8982
12 5259 7389
13 6479 9182
14 1590 3478
15 4642 7793
16 6732 1366
17 4002 162
18 2790 3151
19 2789 4656
20 1594 4467
21 9885 4485
22 1552 2908
23 9093 4829
24 3399 4735
25 1855 4672
26 7922 3606
27 3545 6067
28 1455 3887
29 8350 1627
30 7772 5580
31 596 4712
32 55 9098
33 6004 3976
34 5078 253
35 4210 5477
36 6899 5481
37 542 8667
38 6415 7915
39 6707 2931
40 3645 4039
41 2471 4391
42 1219 9809
43 8016 7849
44 1440 1802
45 4317 9987
46 217 7131
47 5059 2176
48 6771 3174
49 92 1904
50 4570 8525
DEMAND_SECTION
1 0
2 5
3 5
4 5
5 2
6 1
7 8
8 5
9 3
10 2
11 8
12 2
13 3
14 5
15 9
16 7
17 10
18 10
19 1
20 3
21 6
22 10
23 10
24 2
25 2
26 8
27 8
28 1
29 5
30 8
31 6
32 10
33 9
34 8
35 4
36 9
37 1
38 10
39 7
40 4
41 6
42 3
43 3
44 6
45 1
46 1
47 9
48 8
49 9
50 3
DEPOT_SECTION
1
-1
EOF
