NAME: cvrp_n50_uniform_train_001-k10
TYPE: CVRP
DIMENSION: 50
EDGE_WEIGHT_TYPE: EUC_2D
CAPACITY: 39
NODE_COORD_SECTION
1 7972 8151
2 3917 6282
3 1243 2703
4 6198 6921
5 8655 5663
6 3087 4207
7 7799 7472
8 9504 8306
9 9120 2364
10 6658 8385
11 5122 5358
12 7621 2160
13 1028 6298
14 7051 9210
15 4844 734
16 8617 8949
17 5251 5716
18 6338 6525
19 668 4094
20 7566 9051
21 5251 2308
22 2413 3658
23 8296 7975
24 8010 6364
25 9339 8213
26 6094 6411
27 8440 9087
28 2854 9807
29 5218 6771
30 5072 6235
31 1354 4683
32 1059 958
33 3904 5032
34 9005 4264
35 157 2745
36 743 8471
37 4729 6454
38 2909 8357
39 7730 1217
40 8977 1886
41 1235 5677
42 9712 6197
43 8660 8125
44 2796 5551
45 6755 3947
46 3198 8539
47 7794 8944
48 8441 7565
49 1361 3565
50 1497 3916
DEMAND_SECTION
1 0
2 10
3 9
4 2
5 9
6 6
7 2
8 6
9 9
10 2
11 2
12 5
13 9
14 2
15 3
16 5
17 5
18 5
19 10
20 5
21 7
22 7
23 1
24 6
25 10
26 6
27 6
28 1
29 7
30 7
31 4
32 10
33 4
34 1
35 1
36 6
37 6
38 7
39 4
40 8
41 7
42 4
43 5
44 1
45 6
46 7
47 1
48 10
49 2
50 3
DEPOT_SECTION
1
-1
EOF
