NAME: cvrp_n50_uniform_train_010-k10
TYPE: CVRP
DIMENSION: 50
EDGE_WEIGHT_TYPE: EUC_2D
CAPACITY: 43
NODE_COORD_SECTION
1 5864 2274
2 8059 1913
3 6457 9268
4 149 2163
5 5036 8660
6 7508 4605
7 7333 3078
8 3273 6738
9 5421 3901
10 1239 7376
11 8841 8865
12 7591 9725
13 854 7693
14 6601 2390
15 5634 634
16 1970 7842
17 2097 3535
18 8465 5923
19 8522 41
20 8223 1487
21 4512 3537
22 1309 2403
23 6325 5365
24 2861 5606
25 5757 5338
26 1572 9641
27 4082 313
28 9246 9404
29 8380 3096
30 7301 5961
31 8770 9066
32 343 7357
33 3390 3862
34 9721 8824
35 7359 2503
36 8475 6707
37 359 1849
38 8841 5413
39 2230 1952
40 1944 161
41 1483 6972
42 593 368
43 7271 8672
44 7558 299
45 4726 2519
46 1228 4677
47 7537 5258
48 8088 6282
49 9004 3996
50 8905 2983
DEMAND_SECTION
1 0
2 8
3 8
4 7
5 6
6 1
7 7
8 6
9 2
10 8
11 9
12 10
13 9
14 6
15 3
16 4
17 8
18 2
19 2
20 10
21 9
22 7
23 9
24 2
25 8
26 10
27 5
28 8
29 8
30 5
31 5
32 8
33 5
34 10
35 4
36 8
37 1
38 8
39 4
40 4
41 2
42 2
43 2
44 9
45 1
46 9
47 3
48 8
49 4
50 7
DEPOT_SECTION
1
-1
EOF
