NAME: cvrp_n50_uniform_train_000-k10
TYPE: CVRP
DIMENSION: 50
EDGE_WEIGHT_TYPE: EUC_2D
CAPACITY: 43
NODE_COORD_SECTION
1 4789 1824
2 7185 7304
3 3769 5852
4 9164 4521
5 8519 946
6 6361 340
7 8474 2747
8 891 7550
9 9021 5305
10 7664 7967
11 5465 7540
12 2823 1742
13 725 6691
14 2693 3301
15 5326 1924
16 1600 3199
17 4531 3380
18 1344 7581
19 3455 8569
20 8209 2330
21 1909 6450
22 8116 7688
23 1869 5245
24 4622 5886
25 7240 8789
26 2932 5904
27 1942 1803
28 3282 7707
29 3730 5795
30 1783 8180
31 31 6645
32 4211 2001
33 2588 5264
34 1002 8777
35 9771 3800
36 3133 972
37 4903 5987
38 3672 2296
39 6888 837
40 4142 4473
41 4297 4081
42 1162 5818
43 8661 7099
44 7258 7335
45 2172 3097
46 9037 6739
47 1046 9719
48 5677 6149
49 3708 7844
50 3466 9665
DEMAND_SECTION
1 0
2 5
3 4
4 4
5 7
6 9
7 1
8 10
9 9
10 6
11 10
12 9
13 4
14 9
15 3
16 6
17 4
18 3
19 2
20 9
21 2
22 5
23 10
24 9
25 3
26 4
27 9
28 10
29 7
30 2
31 1
32 5
33 10
34 2
35 4
36 8
37 10
38 10
39 2
40 10
41 10
42 4
43 7
44 1
45 8
46 1
47 9
48 8
49 1
50 3
DEPOT_SECTION
1
-1
EOF
