NAME: cvrp_uniform_n30_train_002-k6
TYPE: CVRP
DIMENSION: 30
EDGE_WEIGHT_TYPE: EUC_2D
CAPACITY: 42
NODE_COORD_SECTION
1 8510 2664
2 4880 6960
3 7815 2861
4 265 2478
5 2363 2868
6 5799 1900
7 9576 7007
8 1181 6285
9 4162 7836
10 4495 1596
11 5626 4244
12 262 3281
13 3166 3182
14 3123 7561
15 3896 4470
16 7838 299
17 7832 707
18 6509 8011
19 4873 2914
20 1838 687
21 115 1019
22 5995 5712
23 5773 5147
24 4131 1544
25 7739 4456
26 3936 1448
27 5586 5909
28 3262 6748
29 3215 9998
30 4118 5906
DEMAND_SECTION
1 0
2 3
3 6
4 5
5 7
6 10
7 7
8 10
9 7
10 5
11 9
12 10
13 2
14 8
15 6
16 6
17 9
18 2
19 3
20 9
21 4
22 4
23 7
24 5
25 3
26 3
27 4
28 2
29 10
30 2
DEPOT_SECTION
1
-1
EOF
