NAME: cvrp_uniform_n30_train_004-k6
TYPE: CVRP
DIMENSION: 30
EDGE_WEIGHT_TYPE: EUC_2D
CAPACITY: 43
NODE_COORD_SECTION
1 2335 1086
2 758 5880
3 6921 3118
4 9991 815
5 9644 7953
6 4489 9482
7 3220 4840
8 2979 5177
9 9359 3213
10 7866 8019
11 8979 2016
12 8872 7994
13 5729 907
14 8786 193
15 7387 5647
16 8537 2350
17 909 1398
18 2889 6372
19 2330 7931
20 5940 5483
21 11 9388
22 7873 9036
23 9816 3240
24 6594 299
25 8625 8338
26 1794 8807
27 754 9733
28 6194 7345
29 9913 9329
30 9297 2113
DEMAND_SECTION
1 0
2 5
3 7
4 8
5 3
6 1
7 10
8 10
9 5
10 4
11 8
12 5
13 10
14 2
15 3
16 10
17 3
18 3
19 6
20 6
21 9
22 6
23 6
24 6
25 4
26 7
27 4
28 6
29 10
30 7
DEPOT_SECTION
1
-1
EOF
