NAME: cvrp_uniform_n30_train_006-k6
TYPE: CVRP
DIMENSION: 30
EDGE_WEIGHT_TYPE: EUC_2D
CAPACITY: 39
NODE_COORD_SECTION
1 5057 6636
2 7368 7075
3 7088 8534
4 5466 1154
5 4675 7409
6 8854 3669
7 191 8069
8 7103 6374
9 1209 9464
10 459 8466
11 5046 537
12 4992 7826
13 849 999
14 2172 2012
15 7300 9563
16 4809 9440
17 1856 3847
18 4828 6967
19 2801 8169
20 85 6198
21 1284 9106
22 1664 568
23 4572 3273
24 1580 4284
25 4094 5006
26 7371 6892
27 5372 6700
28 6335 7373
29 6881 3455
30 6588 5807
DEMAND_SECTION
1 0
2 3
3 4
4 5
5 3
6 4
7 1
8 8
9 8
10 10
11 6
12 6
13 3
14 3
15 2
16 8
17 4
18 10
19 3
20 8
21 1
22 10
23 8
24 9
25 8
26 1
27 7
28 5
29 5
30 5
DEPOT_SECTION
1
-1
EOF
