NAME: cvrp_uniform_n30_train_018-k6
TYPE: CVRP
DIMENSION: 30
EDGE_WEIGHT_TYPE: EUC_2D
CAPACITY: 44
NODE_COORD_SECTION
1 1336 3779
2 7677 6033
3 9547 3841
4 9265 6471
5 6315 1291
6 9662 6637
7 6832 5175
8 6563 7595
9 5376 6034
10 8393 7719
11 108 1484
12 24 3153
13 364 9857
14 9152 2270
15 4817 7855
16 7000 5939
17 8675 1860
18 4979 5662
19 4120 4897
20 8748 8150
21 2584 8018
22 4102 3485
23 3801 8143
24 9721 9367
25 7457 4631
26 4452 5700
27 7853 5220
28 8617 3584
29 5991 631
30 2534 2177
DEMAND_SECTION
1 0
2 10
3 7
4 10
5 6
6 8
7 10
8 1
9 1
10 5
11 7
12 8
13 8
14 10
15 10
16 8
17 3
18 7
19 1
20 10
21 6
22 2
23 5
24 1
25 1
26 8
27 4
28 8
29 4
30 10
DEPOT_SECTION
1
-1
EOF
