NAME: cvrp_uniform_n30_train_012-k6
TYPE: CVRP
DIMENSION: 30
EDGE_WEIGHT_TYPE: EUC_2D
CAPACITY: 40
NODE_COORD_SECTION
1 444 3014
2 8092 5028
3 7730 7675
4 934 242
5 3679 2438
6 9643 6310
7 7175 9313
8 249 7970
9 4702 9568
10 9650 1617
11 1672 2495
12 3101 3449
13 1980 8472
14 9525 8346
15 5883 4840
16 7148 8117
17 1935 3890
18 2108 8199
19 7095 2189
20 4390 3589
21 2516 6318
22 6848 3001
23 2353 7584
24 6538 590
25 9605 2770
26 9524 9289
27 9775 60
28 9367 9296
29 4780 5528
30 7015 8364
DEMAND_SECTION
1 0
2 1
3 5
4 6
5 9
6 9
7 6
8 8
9 9
10 3
11 9
12 1
13 7
14 7
15 10
16 8
17 4
18 5
19 3
20 5
21 1
22 5
23 5
24 9
25 7
26 3
27 3
28 7
29 7
30 1
DEPOT_SECTION
1
-1
EOF
