NAME: cvrp_uniform_n30_train_005-k6
TYPE: CVRP
DIMENSION: 30
EDGE_WEIGHT_TYPE: EUC_2D
CAPACITY: 36
NODE_COORD_SECTION
1 2474 7690
2 907 5948
3 7717 3269
4 9356 3971
5 4820 7174
6 213 216
7 1094 874
8 8812 8392
9 5818 2663
10 1535 6480
11 3668 8725
12 6718 1391
13 6879 7190
14 610 312
15 7506 1461
16 90 3766
17 9818 6457
18 9531 7425
19 1341 8524
20 6592 119
21 8488 9621
22 1771 2967
23 2965 1385
24 9618 9272
25 1752 9485
26 6257 2508
27 6822 7524
28 1140 1464
29 2585 7982
30 1154 8156
DEMAND_SECTION
1 0
2 2
3 10
4 1
5 3
6 10
7 4
8 2
9 3
10 7
11 6
12 4
13 7
14 9
15 2
16 10
17 5
18 1
19 3
20 3
21 5
22 4
23 4
24 2
25 10
26 7
27 10
28 1
29 7
30 4
DEPOT_SECTION
1
-1
EOF
