NAME: cvrp_uniform_n30_train_015-k6
TYPE: CVRP
DIMENSION: 30
EDGE_WEIGHT_TYPE: EUC_2D
CAPACITY: 41
NODE_COORD_SECTION
1 9139 1926
2 3057 3746
3 5045 978
4 8455 3567
5 9513 2393
6 2610 8298
7 2632 3175
8 3258 2185
9 9041 6629
10 2628 3739
11 3723 2630
12 6943 2114
13 4764 3542
14 8277 6272
15 1597 6116
16 9024 3970
17 3965 3285
18 553 3066
19 3772 8147
20 493 1111
21 6758 3934
22 9625 537
23 931 6462
24 8576 5725
25 3341 8552
26 6554 5681
27 9665 3373
28 5722 174
29 2125 1014
30 5902 3570
DEMAND_SECTION
1 0
2 2
3 2
4 4
5 6
6 3
7 5
8 10
9 9
10 8
11 10
12 6
13 10
14 6
15 1
16 1
17 6
18 4
19 7
20 7
21 7
22 2
23 9
24 4
25 5
26 7
27 7
28 10
29 6
30 2
DEPOT_SECTION
1
-1
EOF
