NAME: cvrp_uniform_n30_train_008-k6
TYPE: CVRP
DIMENSION: 30
EDGE_WEIGHT_TYPE: EUC_2D
CAPACITY: 41
NODE_COORD_SECTION
1 6104 2576
2 3876 3190
3 3295 4221
4 8784 2290
5 9919 8609
6 6206 7044
7 9823 5529
8 3893 2882
9 7989 798
10 3854 8531
11 8484 920
12 6786 1300
13 6407 6630
14 1984 1925
15 7687 8712
16 7300 3208
17 4022 9320
18 3600 1448
19 1186 8727
20 2224 7007
21 3048 8531
22 5078 6553
23 1120 6694
24 3835 743
25 3570 3481
26 3139 6760
27 678 3200
28 6002 7523
29 4344 4946
30 5874 9418
DEMAND_SECTION
1 0
2 5
3 2
4 9
5 7
6 4
7 4
8 3
9 8
10 7
11 9
12 10
13 4
14 1
15 6
16 9
17 7
18 8
19 4
20 9
21 4
22 7
23 2
24 4
25 8
26 2
27 10
28 5
29 5
30 1
DEPOT_SECTION
1
-1
EOF
