NAME: cvrp_uniform_n30_train_009-k6
TYPE: CVRP
DIMENSION: 30
EDGE_WEIGHT_TYPE: EUC_2D
CAPACITY: 42
NODE_COORD_SECTION
1 1077 3104
2 4182 9789
3 4116 5252
4 1810 9818
5 3088 3986
6 1955 5822
7 1250 6451
8 9691 9898
9 6634 8299
10 5927 8827
11 5210 3512
12 8198 4764
13 1574 986
14 7108 606
15 5373 7352
16 6518 7614
17 9345 4003
18 7391 3798
19 472 7391
20 9388 9789
21 6273 1351
22 9462 2776
23 4930 6553
24 7728 4133
25 5127 3577
26 4957 8999
27 1030 8661
28 3520 691
29 9220 5875
30 5072 1642
DEMAND_SECTION
1 0
2 9
3 9
4 2
5 2
6 8
7 9
8 3
9 1
10 8
11 4
12 5
13 8
14 10
15 5
16 9
17 3
18 5
19 1
20 4
21 8
22 10
23 7
24 1
25 7
26 9
27 10
28 6
29 1
30 5
DEPOT_SECTION
1
-1
EOF
