NAME: cvrp_uniform_n30_train_001-k6
TYPE: CVRP
DIMENSION: 30
EDGE_WEIGHT_TYPE: EUC_2D
CAPACITY: 38
NODE_COORD_SECTION
1 5445 2498
2 3897 7926
3 4121 9245
4 6653 1751
5 8489 3364
6 1849 5350
7 461 5861
8 5392 6811
9 4099 3042
10 7729 1067
11 1859 8276
12 9681 4496
13 263 2181
14 3243 5671
15 3991 5394
16 7982 8648
17 608 833
18 1411 6981
19 5683 1489
20 4480 7934
21 8108 1297
22 5992 6064
23 6437 117
24 4587 7041
25 2775 6566
26 2399 4079
27 552 8567
28 9420 6272
29 6990 6086
30 4943 6672
DEMAND_SECTION
1 0
2 3
3 8
4 5
5 7
6 5
7 5
8 4
9 7
10 9
11 5
12 5
13 2
14 3
15 5
16 4
17 8
18 3
19 4
20 6
21 10
22 8
23 1
24 9
25 3
26 10
27 2
28 3
29 9
30 2
DEPOT_SECTION
1
-1
EOF
