NAME: cvrp_uniform_n30_train_011-k6
TYPE: CVRP
DIMENSION: 30
EDGE_WEIGHT_TYPE: EUC_2D
CAPACITY: 40
NODE_COORD_SECTION
1 3362 4336
2 1447 6966
3 8271 5338
4 1082 934
5 930 9501
6 4294 6015
7 2762 5841
8 5885 72
9 6763 8953
10 5840 5507
11 471 1914
12 6874 1956
13 8058 2194
14 2580 2157
15 1857 2012
16 2702 2949
17 69 7495
18 4530 1278
19 5583 2146
20 8666 4346
21 7159 2356
22 7272 8130
23 6165 4176
24 8 1212
25 1233 893
26 5206 5066
27 833 7900
28 4786 2259
29 9484 9335
30 6780 8366
DEMAND_SECTION
1 0
2 10
3 7
4 6
5 6
6 4
7 7
8 6
9 5
10 6
11 10
12 6
13 9
14 8
15 4
16 10
17 2
18 4
19 3
20 9
21 4
22 5
23 4
24 8
25 3
26 6
27 1
28 4
29 2
30 2
DEPOT_SECTION
1
-1
EOF
