NAME: cvrp_uniform_n30_train_014-k6
TYPE: CVRP
DIMENSION: 30
EDGE_WEIGHT_TYPE: EUC_2D
CAPACITY: 42
NODE_COORD_SECTION
1 2930 4236
2 4843 5880
3 3720 7638
4 7818 1506
5 8566 9661
6 973 987
7 8204 2404
8 2866 6429
9 3205 2121
10 801 4044
11 623 6124
12 4399 7501
13 2662 201
14 2970 2663
15 8440 3016
16 2987 2380
17 148 8100
18 8433 9865
19 7890 5303
20 194 6187
21 553 2226
22 9398 8057
23 7744 5383
24 6025 755
25 9874 6006
26 1434 9196
27 254 8373
28 9715 7166
29 10 3436
30 9195 2630
DEMAND_SECTION
1 0
2 9
3 5
4 7
5 9
6 5
7 1
8 10
9 9
10 3
11 1
12 1
13 10
14 6
15 2
16 10
17 6
18 10
19 1
20 4
21 7
22 9
23 3
24 2
25 3
26 2
27 9
28 10
29 10
30 5
DEPOT_SECTION
1
-1
EOF
