NAME: cvrp_uniform_n30_train_016-k6
TYPE: CVRP
DIMENSION: 30
EDGE_WEIGHT_TYPE: EUC_2D
CAPACITY: 40
NODE_COORD_SECTION
1 3598 4085
2 2391 2408
3 6648 4278
4 9821 4782
5 342 8949
6 3019 5333
7 6745 6849
8 23 5202
9 5203 3077
10 1799 3704
11 6805 8858
12 6083 7296
13 2078 6041
14 4258 2339
15 937 1945
16 4667 3117
17 7175 1288
18 7543 6788
19 9584 615
20 609 6344
21 4682 4972
22 7089 1477
23 1360 2325
24 937 2447
25 6344 813
26 6314 95
27 9622 4735
28 7961 3184
29 1405 5148
30 3166 9764
DEMAND_SECTION
1 0
2 10
3 6
4 5
5 3
6 6
7 6
8 4
9 8
10 4
11 9
12 8
13 6
14 1
15 1
16 8
17 10
18 7
19 2
20 7
21 2
22 2
23 7
24 2
25 2
26 7
27 3
28 5
29 10
30 9
DEPOT_SECTION
1
-1
EOF
