NAME: cvrp_uniform_n30_train_007-k6
TYPE: CVRP
DIMENSION: 30
EDGE_WEIGHT_TYPE: EUC_2D
CAPACITY: 42
NODE_COORD_SECTION
1 474 7384
2 6379 9724
3 5816 2395
4 825 8749
5 1760 9912
6 3469 6985
7 1298 3151
8 524 7552
9 1487 1333
10 9479 2906
11 9009 5748
12 4334 8494
13 2052 2794
14 9155 2796
15 4312 372
16 2797 6423
17 498 9057
18 1897 4076
19 3761 2075
20 3027 603
21 253 8393
22 3385 494
23 1027 1313
24 5186 3593
25 5531 5732
26 4668 4625
27 8832 4436
28 4551 3835
29 4786 654
30 5162 1426
DEMAND_SECTION
1 0
2 2
3 7
4 10
5 8
6 7
7 1
8 2
9 6
10 7
11 2
12 1
13 6
14 1
15 6
16 9
17 2
18 8
19 4
20 9
21 6
22 8
23 8
24 8
25 2
26 10
27 5
28 9
29 8
30 8
DEPOT_SECTION
1
-1
EOF
