NAME: cvrp_uniform_n30_train_003-k6
TYPE: CVRP
DIMENSION: 30
EDGE_WEIGHT_TYPE: EUC_2D
CAPACITY: 48
NODE_COORD_SECTION
1 9570 5429
2 3060 4895
3 6135 2759
4 4555 7896
5 9008 674
6 9393 9085
7 5723 1520
8 3723 5409
9 4783 6499
10 2560 642
11 7277 1956
12 8604 5477
13 3787 3206
14 5641 5002
15 850 6804
16 6764 754
17 3028 7281
18 5420 4740
19 2374 6268
20 4663 2714
21 3986 226
22 2219 8783
23 5799 5050
24 658 5797
25 1408 260
26 1190 5474
27 1601 761
28 5459 3681
29 9442 3209
30 2448 2357
DEMAND_SECTION
1 0
2 9
3 8
4 9
5 5
6 3
7 9
8 7
9 8
10 8
11 9
12 9
13 6
14 9
15 1
16 1
17 4
18 3
19 10
20 7
21 9
22 10
23 9
24 8
25 9
26 9
27 2
28 7
29 5
30 1
DEPOT_SECTION
1
-1
EOF
