NAME: cvrp_uniform_n30_train_010-k6
TYPE: CVRP
DIMENSION: 30
EDGE_WEIGHT_TYPE: EUC_2D
CAPACITY: 35
NODE_COORD_SECTION
1 8444 5785
2 2580 8983
3 6843 8605
4 1904 6061
5 4064 5446
6 5559 5799
7 8503 8705
8 6935 9902
9 6206 4933
10 9817 7390
11 1398 7912
12 2611 2148
13 1630 2614
14 7944 5528
15 2021 7411
16 853 8389
17 7940 6955
18 6764 5620
19 5982 8034
20 8506 3507
21 1625 2654
22 6765 4364
23 3286 2984
24 9246 8540
25 7389 7828
26 4368 4187
27 7755 633
28 5549 1958
29 5987 3404
30 6248 1843
DEMAND_SECTION
1 0
2 6
3 7
4 2
5 4
6 8
7 5
8 3
9 5
10 3
11 7
12 10
13 1
14 5
15 1
16 9
17 3
18 6
19 4
20 3
21 4
22 10
23 3
24 2
25 3
26 9
27 3
28 9
29 5
30 3
DEPOT_SECTION
1
-1
EOF
