NAME: cvrp_uniform_n30_train_019-k6
TYPE: CVRP
DIMENSION: 30
EDGE_WEIGHT_TYPE: EUC_2D
CAPACITY: 36
NODE_COORD_SECTION
1 1701 7602
2 2001 575
3 851 8524
4 9362 9824
5 9084 9153
6 8293 438
7 8958 9624
8 8059 6415
9 3679 3453
10 8357 4876
11 9064 2325
12 9914 7511
13 9806 9433
14 3934 9012
15 2237 7480
16 5623 2222
17 4120 8918
18 1091 4840
19 8439 8484
20 5212 3066
21 2959 3315
22 5214 967
23 7956 7329
24 7143 4758
25 7245 8293
26 4086 6527
27 6868 8077
28 3859 2238
29 5531 2992
30 5376 156
DEMAND_SECTION
1 0
2 4
3 5
4 1
5 7
6 2
7 5
8 8
9 9
10 6
11 2
12 3
13 3
14 2
15 2
16 6
17 1
18 5
19 4
20 3
21 8
22 7
23 8
24 10
25 2
26 6
27 10
28 5
29 9
30 2
DEPOT_SECTION
1
-1
EOF
