NAME: cvrp_uniform_n30_train_017-k6
TYPE: CVRP
DIMENSION: 30
EDGE_WEIGHT_TYPE: EUC_2D
CAPACITY: 39
NODE_COORD_SECTION
1 5621 3932
2 8454 5545
3 6173 5598
4 4001 2361
5 1042 7051
6 961 8689
7 909 4755
8 614 1091
9 8347 9607
10 414 4123
11 2791 1767
12 1404 956
13 4864 6551
14 7969 1981
15 9015 2975
16 10 5722
17 7747 8452
18 4685 6872
19 6902 7893
20 1983 2014
21 2087 1525
22 2109 4524
23 4580 9565
24 4509 5444
25 1842 9565
26 6766 2800
27 139 4652
28 185 5186
29 9528 8426
30 6868 9648
DEMAND_SECTION
1 0
2 7
3 1
4 6
5 5
6 7
7 8
8 9
9 5
10 2
11 3
12 7
13 4
14 2
15 8
16 9
17 8
18 3
19 4
20 10
21 9
22 3
23 3
24 7
25 2
26 7
27 4
28 4
29 4
30 5
DEPOT_SECTION
1
-1
EOF
