NAME: cvrp_uniform_n30_train_000-k6
TYPE: CVRP
DIMENSION: 30
EDGE_WEIGHT_TYPE: EUC_2D
CAPACITY: 35
NODE_COORD_SECTION
1 5835 1210
2 2320 6796
3 489 8242
4 371 7228
5 8530 5653
6 7188 8358
7 6351 4051
8 7931 4167
9 277 676
10 4798 7049
11 7158 2197
12 5471 1689
13 1496 5832
14 169 8745
15 8559 9688
16 5748 8166
17 9576 6353
18 659 997
19 9440 2276
20 5190 4570
21 8987 8493
22 7157 5041
23 8507 7749
24 2052 673
25 8808 4799
26 8695 9895
27 3506 3267
28 8158 7945
29 9414 2116
30 7111 1107
DEMAND_SECTION
1 0
2 9
3 9
4 6
5 1
6 5
7 10
8 4
9 1
10 4
11 6
12 1
13 5
14 1
15 9
16 8
17 1
18 8
19 1
20 5
21 1
22 9
23 3
24 5
25 2
26 5
27 6
28 7
29 2
30 7
DEPOT_SECTION
1
-1
EOF
