NAME: cvrp_uniform_n30_train_013-k6
TYPE: CVRP
DIMENSION: 30
EDGE_WEIGHT_TYPE: EUC_2D
CAPACITY: 38
NODE_COORD_SECTION
1 4245 7032
2 653 4558
3 7088 379
4 4479 1512
5 6736 989
6 9793 6624
7 6611 8118
8 5844 4122
9 9864 2986
10 1037 3991
11 3292 1515
12 6361 3457
13 2512 2697
14 1326 1900
15 7558 1337
16 2323 3468
17 9442 8549
18 4603 3431
19 4840 2517
20 6056 145
21 2419 8362
22 7268 5854
23 7664 506
24 1210 5712
25 6468 8702
26 6162 8720
27 7472 8112
28 1074 5018
29 6838 799
30 6033 8999
DEMAND_SECTION
1 0
2 9
3 6
4 6
5 7
6 6
7 1
8 10
9 2
10 6
11 1
12 5
13 8
14 7
15 6
16 10
17 8
18 3
19 3
20 6
21 8
22 5
23 5
24 7
25 1
26 1
27 6
28 3
29 1
30 8
DEPOT_SECTION
1
-1
EOF
