NAME: tsp_uniform_n100_smoke_000
TYPE: TSP
DIMENSION: 100
EDGE_WEIGHT_TYPE: EUC_2D
NODE_COORD_SECTION
1 4434 1599
2 8458 8508
3 8650 758
4 8748 2169
5 9593 284
6 7706 6557
7 6644 8475
8 6358 6293
9 4405 9031
10 1192 2202
11 5651 271
12 3274 6986
13 5108 6387
14 7841 7516
15 3076 6784
16 5034 143
17 879 6830
18 4888 4745
19 7807 4814
20 1167 9521
21 4299 6601
22 6863 3285
23 7211 9438
24 6911 729
25 1310 8331
26 7597 5516
27 9524 4874
28 8007 2370
29 6121 5869
30 864 4565
31 6983 982
32 9770 1387
33 9778 3679
34 8412 908
35 9361 6182
36 5139 7620
37 851 9689
38 7494 5435
39 1137 4069
40 4560 8797
41 8747 2706
42 8771 384
43 5902 2860
44 2380 847
45 8848 7349
46 704 1263
47 8013 1172
48 2059 6594
49 5925 8597
50 2809 5365
51 4633 4365
52 1626 9143
53 5996 4168
54 3315 999
55 6165 3894
56 4448 5115
57 8387 2986
58 8998 2667
59 9918 7240
60 5919 4805
61 3075 5687
62 7733 1186
63 1272 7466
64 2737 6448
65 1503 4464
66 9763 8369
67 6133 9236
68 7900 4111
69 737 3600
70 8518 3623
71 9393 1214
72 5592 9601
73 7848 5378
74 2983 4052
75 4900 6740
76 5415 3317
77 8687 78
78 9250 6046
79 4825 4168
80 8275 463
81 6600 6519
82 1757 8851
83 1917 2619
84 7938 1436
85 6301 7293
86 2108 3370
87 9487 6211
88 4889 7526
89 2649 7720
90 1427 2693
91 2375 8930
92 7812 7513
93 5723 5469
94 1910 2215
95 8971 5537
96 4185 6628
97 5433 5441
98 2118 523
99 114 2175
100 9676 4053
EOF
