NAME: tsp_uniform_n100_smoke_001
TYPE: TSP
DIMENSION: 100
EDGE_WEIGHT_TYPE: EUC_2D
NODE_COORD_SECTION
1 7346 2505
2 3214 2149
3 859 105
4 3971 7888
5 2061 946
6 8275 9731
7 7582 959
8 8674 3689
9 9850 5076
10 1387 1614
11 2666 5372
12 6862 882
13 4188 8091
14 7921 436
15 5215 4776
16 4838 5701
17 2671 7878
18 3744 121
19 5985 3308
20 4551 6504
21 8929 7654
22 6059 1000
23 5002 3304
24 7227 88
25 1095 8902
26 2147 7441
27 4941 913
28 2693 8505
29 7752 6526
30 5694 5437
31 6376 10
32 8807 9301
33 9731 408
34 3949 9619
35 106 424
36 9741 5285
37 8350 1532
38 1920 2739
39 9451 4265
40 5792 3641
41 9003 7836
42 859 2678
43 2902 6896
44 6066 4307
45 1249 3769
46 4407 4764
47 1886 9976
48 6370 7171
49 7162 774
50 7350 1221
51 140 177
52 7512 725
53 2252 590
54 175 4418
55 248 1040
56 7500 4939
57 7360 294
58 6944 5127
59 4581 5617
60 268 499
61 9971 2261
62 6827 3644
63 9534 5371
64 5209 2997
65 1304 1555
66 6203 582
67 7134 8508
68 1934 7561
69 7621 6213
70 2396 5017
71 7847 7791
72 5679 2138
73 3972 3842
74 747 1643
75 2879 7202
76 7418 5871
77 1256 3161
78 6791 4345
79 8597 6226
80 666 833
81 9357 62
82 1686 8462
83 8534 6874
84 2654 9136
85 9288 944
86 873 6196
87 9279 9798
88 2416 6064
89 5157 3988
90 7105 4906
91 2623 7894
92 7077 2037
93 2818 8853
94 3498 3764
95 3059 5098
96 9005 8440
97 5894 2910
98 2916 2425
99 3235 5522
100 5362 3312
EOF
