NAME: tsp_uniform_n50_c_smoke_001
TYPE: TSP
DIMENSION: 50
EDGE_WEIGHT_TYPE: EUC_2D
NODE_COORD_SECTION
1 810 7419
2 9814 8688
3 6694 1142
4 9450 2435
5 5077 7639
6 7362 7666
7 6805 9762
8 6225 5837
9 1280 9064
10 4090 3912
11 804 6920
12 1235 8809
13 8134 3340
14 8788 5057
15 8050 9421
16 1574 9093
17 8665 3629
18 1681 4081
19 51 1059
20 4477 10
21 6241 3776
22 5268 7010
23 1709 4777
24 8520 6761
25 8186 8545
26 4444 4628
27 6639 1778
28 3413 8083
29 7910 593
30 1773 1802
31 9654 6147
32 9348 1046
33 81 3851
34 6900 2041
35 323 5477
36 5880 7568
37 1463 2265
38 9435 7896
39 6750 1349
40 6257 31
41 7628 2173
42 9325 5419
43 2060 5754
44 1763 30
45 8507 1998
46 8563 3768
47 1874 1246
48 8696 9652
49 4925 4674
50 3078 4034
EOF
