NAME: tsp_uniform_n50_c_smoke_000
TYPE: TSP
DIMENSION: 50
EDGE_WEIGHT_TYPE: EUC_2D
NODE_COORD_SECTION
1 2712 4715
2 9778 5595
3 3099 4444
4 4724 9870
5 5874 7672
6 7221 9454
7 6949 1557
8 7205 848
9 6124 388
10 7817 320
11 1283 5945
12 4758 5747
13 2266 7331
14 7567 4959
15 7152 5656
16 3608 6886
17 8558 375
18 832 748
19 3207 5480
20 3536 5939
21 5545 6457
22 6700 9171
23 722 7579
24 3059 5056
25 4934 2155
26 7076 5141
27 8334 4624
28 6658 2096
29 118 8123
30 6211 7850
31 4263 6307
32 5410 1141
33 9279 7277
34 1619 1228
35 2252 1717
36 8824 2614
37 3857 4889
38 3057 1227
39 4498 2747
40 1599 9688
41 6033 7590
42 8957 5563
43 1561 5506
44 2225 5708
45 2857 323
46 2010 661
47 145 7862
48 6094 9351
49 8916 5305
50 8205 8792
EOF
