NAME: cvrp_n100_uniform_train_010-k20
TYPE: CVRP
DIMENSION: 100
EDGE_WEIGHT_TYPE: EUC_2D
CAPACITY: 44
NODE_COORD_SECTION
1 4787 4746
2 4576 1512
3 3706 5427
4 5415 1746
5 4383 2740
6 4825 8659
7 7347 2512
8 3107 9051
9 4812 6071
10 8654 9498
11 7508 8475
12 9205 7043
13 3641 9243
14 8830 430
15 3448 6322
16 7775 318
17 8481 9758
18 2121 6837
19 6919 6660
20 1172 3506
21 5748 119
22 4492 1222
23 6927 7073
24 3311 7457
25 5306 8810
26 6876 5724
27 7147 9421
28 2430 8186
29 7259 247
30 38 1748
31 5836 2067
32 6648 4142
33 8042 7295
34 2946 7037
35 8069 4057
36 6997 5253
37 9440 2303
38 7283 6678
39 4349 8789
40 9264 9908
41 1486 4264
42 9226 3700
43 6139 6137
44 202 143
45 2711 3664
46 5608 3584
47 8703 8730
48 7268 5676
49 7295 620
50 4857 9479
51 6972 5708
52 3814 9597
53 8977 256
54 8870 3199
55 1776 4154
56 5313 8556
57 5961 8921
58 8116 8103
59 1803 2661
60 9416 3692
61 5359 29
62 4464 8485
63 2904 2086
64 1009 2873
65 1756 9623
66 3027 5256
67 577 2010
68 8065 8962
69 2089 881
70 5339 3884
71 7686 7428
72 4353 5083
73 840 7976
74 6799 1067
75 6851 741
76 2562 8340
77 4297 9901
78 7000 4439
79 5455 9476
80 2065 9013
81 9878 9742
82 9023 3392
83 2947 587
84 1352 6633
85 1388 9597
86 7663 359
87 7711 3084
88 7605 5284
89 3300 8566
90 4898 1241
91 8431 5124
92 5566 5959
93 3293 9930
94 1180 1595
95 5373 3486
96 3814 2764
97 3586 6366
98 6406 6292
99 847 4067
100 2427 7673
DEMAND_SECTION
1 0
2 9
3 2
4 7
5 10
6 4
7 3
8 8
9 5
10 1
11 4
12 4
13 8
14 3
15 6
16 5
17 2
18 10
19 8
20 8
21 9
22 9
23 4
24 9
25 4
26 3
27 2
28 10
29 1
30 8
31 5
32 4
33 8
34 10
35 3
36 1
37 10
38 5
39 5
40 8
41 3
42 3
43 1
44 10
45 7
46 8
47 10
48 8
49 9
50 1
51 1
52 9
53 1
54 10
55 10
56 6
57 8
58 4
59 10
60 10
61 7
62 4
63 4
64 7
65 4
66 2
67 6
68 9
69 1
70 8
71 8
72 4
73 7
74 10
75 8
76 6
77 10
78 8
79 8
80 5
81 2
82 5
83 2
84 6
85 5
86 3
87 9
88 2
89 7
90 8
91 10
92 7
93 8
94 6
95 2
96 7
97 7
98 2
99 6
100 3
DEPOT_SECTION
1
-1
EOF
