NAME: cvrp_n100_uniform_train_011-k20
TYPE: CVRP
DIMENSION: 100
EDGE_WEIGHT_TYPE: EUC_2D
CAPACITY: 39
NODE_COORD_SECTION
1 4745 7028
2 8317 5756
3 7904 8153
4 3535 8464
5 5767 4028
6 1416 7280
7 5003 8723
8 5610 2213
9 6270 2445
10 7915 7499
11 3052 5179
12 6280 5985
13 2573 2804
14 2917 9811
15 4823 2678
16 7475 7779
17 8012 6769
18 3269 1433
19 6608 8056
20 969 9597
21 4958 415
22 8719 1383
23 8161 4234
24 4754 237
25 2816 1453
26 6174 3989
27 5319 7859
28 5606 2906
29 579 5374
30 988 3489
31 2180 3908
32 3307 5238
33 7804 7327
34 999 819
35 9765 2833
36 8781 6009
37 613 9170
38 2656 6344
39 6980 5143
40 3763 6875
41 2787 756
42 2808 4934
43 3903 1430
44 7507 5922
45 1762 1893
46 4017 259
47 5961 8242
48 7055 5493
49 4467 7622
50 1486 6650
51 8817 2959
52 6876 7022
53 3748 6342
54 7136 5194
55 9500 5145
56 8925 3452
57 4517 6060
58 1265 744
59 6609 5997
60 7719 1258
61 1271 3353
62 3410 7350
63 5180 9396
64 5330 9502
65 2400 7883
66 3965 2266
67 6483 3114
68 3610 7688
69 1476 6378
70 5119 8574
71 7305 2047
72 3588 2327
73 235 6523
74 299 9360
75 8922 8555
76 8010 3260
77 7416 3778
78 6984 191
79 9113 5254
80 4166 7627
81 2016 1061
82 1865 6005
83 4262 6389
84 5626 3052
85 6516 296
86 3286 1027
87 4358 8654
88 6254 7014
89 8872 3278
90 7279 8351
91 638 2778
92 9155 8325
93 1332 223
94 9370 4106
95 1684 6916
96 7311 1111
97 4964 6201
98 5134 8470
99 1492 506
100 7482 1917
DEMAND_SECTION
1 0
2 4
3 6
4 5
5 3
6 9
7 6
8 10
9 2
10 2
11 4
12 4
13 9
14 3
15 5
16 7
17 1
18 6
19 4
20 1
21 2
22 2
23 5
24 2
25 4
26 5
27 5
28 7
29 3
30 10
31 4
32 9
33 8
34 1
35 7
36 4
37 7
38 7
39 3
40 5
41 1
42 9
43 3
44 2
45 3
46 3
47 9
48 4
49 6
50 9
51 6
52 6
53 9
54 4
55 7
56 3
57 8
58 2
59 3
60 8
61 7
62 8
63 1
64 5
65 10
66 5
67 8
68 1
69 6
70 4
71 4
72 1
73 2
74 7
75 5
76 10
77 4
78 7
79 10
80 3
81 2
82 7
83 4
84 7
85 4
86 10
87 4
88 4
89 10
90 3
91 9
92 1
93 9
94 4
95 3
96 6
97 7
98 10
99 6
100 9
DEPOT_SECTION
1
-1
EOF
