NAME: cvrp_n100_uniform_train_007-k20
TYPE: CVRP
DIMENSION: 100
EDGE_WEIGHT_TYPE: EUC_2D
CAPACITY: 42
NODE_COORD_SECTION
1 9184 2559
2 2471 7218
3 6900 9993
4 9009 1804
5 3481 3969
6 9761 3449
7 5610 4645
8 8022 4099
9 5846 4159
10 8224 9658
11 2644 4076
12 4278 4062
13 5335 2133
14 4552 5934
15 3841 2212
16 3472 3196
17 2668 9274
18 6024 9378
19 8939 9996
20 9551 6405
21 1556 6739
22 2576 4761
23 2694 9869
24 9533 511
25 5479 8699
26 5694 9252
27 1546 5416
28 4873 8834
29 6284 1774
30 6077 630
31 4594 6820
32 8166 2100
33 2202 226
34 2591 9666
35 5914 8153
36 315 1209
37 1741 2524
38 9710 1722
39 5016 782
40 7279 1202
41 5003 8393
42 292 1893
43 880 4333
44 5773 7371
45 3879 2339
46 9242 1583
47 4072 2190
48 1794 7022
49 4760 9208
50 5941 7311
51 9358 1205
52 5238 6110
53 4310 1991
54 597 3025
55 844 925
56 4599 2337
57 8453 3194
58 9146 4070
59 3901 4043
60 8415 806
61 917 1357
62 779 8196
63 2831 9000
64 9306 5162
65 6130 9290
66 8263 793
67 2505 6572
68 3338 2491
69 6417 5722
70 4366 6896
71 5389 6439
72 4922 7187
73 8169 7140
74 3899 4303
75 867 7200
76 4697 2550
77 6896 2833
78 2244 6865
79 7742 6789
80 8564 5622
81 1116 1515
82 9162 1803
83 8557 2901
84 9127 60
85 8672 7491
86 2215 9757
87 7204 4828
88 1708 6808
89 1581 8756
90 9529 4951
91 4245 6091
92 7503 8397
93 6831 3547
94 8251 8547
95 3874 1288
96 1555 4154
97 5682 4346
98 2790 798
99 435 2545
100 9981 8646
DEMAND_SECTION
1 0
2 3
3 7
4 3
5 9
6 1
7 4
8 10
9 8
10 1
11 7
12 5
13 8
14 5
15 3
16 7
17 8
18 7
19 3
20 10
21 3
22 6
23 8
24 9
25 8
26 4
27 8
28 4
29 7
30 7
31 5
32 4
33 5
34 1
35 6
36 10
37 5
38 3
39 3
40 2
41 3
42 9
43 10
44 5
45 1
46 10
47 1
48 7
49 3
50 2
51 6
52 10
53 6
54 7
55 9
56 5
57 5
58 5
59 5
60 1
61 9
62 6
63 4
64 9
65 3
66 3
67 5
68 8
69 9
70 7
71 9
72 1
73 6
74 3
75 2
76 10
77 7
78 5
79 4
80 9
81 8
82 4
83 7
84 1
85 5
86 10
87 8
88 10
89 6
90 10
91 2
92 7
93 5
94 9
95 6
96 2
97 4
98 6
99 8
100 5
DEPOT_SECTION
1
-1
EOF
