NAME: cvrp_n100_uniform_train_015-k20
TYPE: CVRP
DIMENSION: 100
EDGE_WEIGHT_TYPE: EUC_2D
CAPACITY: 40
NODE_COORD_SECTION
1 4545 7867
2 2830 2977
3 4831 8163
4 6655 1830
5 6551 1684
6 3304 6990
7 1027 4539
8 813 9802
9 4587 3274
10 7493 3041
11 7397 8232
12 9410 310
13 9844 1972
14 2011 7848
15 3614 6059
16 6327 7805
17 6014 3809
18 9789 7863
19 1895 2059
20 7782 8076
21 5726 9013
22 5447 424
23 7752 3541
24 1381 7308
25 6660 7648
26 420 6321
27 7968 688
28 4901 201
29 7241 4551
30 704 594
31 5593 6133
32 551 9202
33 3699 2669
34 8095 3107
35 1513 9616
36 1715 7957
37 9947 430
38 1789 2930
39 9315 2761
40 9289 7901
41 7334 3560
42 3521 789
43 4669 5122
44 2936 2112
45 8977 7726
46 5340 3911
47 5946 9868
48 2939 9521
49 6039 8226
50 9855 6948
51 4464 3587
52 485 1506
53 2980 445
54 3504 5390
55 1836 395
56 6282 1691
57 2387 1419
58 1805 9941
59 363 4163
60 481 5793
61 1667 5824
62 2252 4101
63 3321 8516
64 8167 5774
65 939 5045
66 7621 2092
67 2157 986
68 2267 8915
69 1279 4564
70 2077 5691
71 3200 653
72 284 5870
73 1268 9869
74 760 6052
75 5446 8535
76 2611 9865
77 530 4644
78 8994 6957
79 4614 5926
80 4393 4310
81 3455 7352
82 6943 4451
83 9016 8046
84 9922 5191
85 7402 2213
86 5157 706
87 4673 2460
88 2606 5151
89 3922 2393
90 6053 6505
91 243 2538
92 424 5887
93 3194 8048
94 3801 3762
95 6305 5404
96 2050 4343
97 7938 7509
98 3141 4814
99 8500 320
100 6395 2008
DEMAND_SECTION
1 0
2 5
3 8
4 6
5 9
6 3
7 8
8 5
9 7
10 1
11 4
12 3
13 2
14 4
15 10
16 3
17 6
18 9
19 4
20 8
21 5
22 2
23 5
24 2
25 3
26 8
27 9
28 1
29 5
30 5
31 6
32 4
33 3
34 4
35 2
36 8
37 2
38 3
39 10
40 2
41 7
42 7
43 3
44 6
45 2
46 6
47 4
48 6
49 8
50 5
51 8
52 3
53 8
54 5
55 8
56 3
57 9
58 4
59 5
60 3
61 7
62 4
63 4
64 8
65 3
66 10
67 4
68 8
69 10
70 9
71 4
72 2
73 3
74 9
75 9
76 5
77 4
78 5
79 7
80 9
81 9
82 2
83 8
84 9
85 8
86 9
87 3
88 5
89 4
90 6
91 8
92 2
93 1
94 4
95 4
96 1
97 7
98 10
99 6
100 7
DEPOT_SECTION
1
-1
EOF
