NAME: cvrp_n100_uniform_train_000-k20
TYPE: CVRP
DIMENSION: 100
EDGE_WEIGHT_TYPE: EUC_2D
CAPACITY: 38
NODE_COORD_SECTION
1 4107 1979
2 6506 6052
3 5296 2637
4 6069 6163
5 8905 6195
6 9903 4006
7 927 4846
8 1738 6034
9 6704 9773
10 58 5592
11 2239 1675
12 1718 7949
13 2319 5621
14 5641 5193
15 5410 8652
16 1561 2025
17 4557 8092
18 2558 2659
19 9966 5152
20 1077 6869
21 8298 5966
22 7431 4193
23 5623 8435
24 1503 6687
25 3879 8470
26 8800 1529
27 6701 4942
28 3926 9741
29 7666 3147
30 3075 7155
31 1193 4294
32 3859 647
33 6895 5960
34 1225 429
35 8438 6881
36 9894 3010
37 9534 3543
38 7392 6430
39 2094 5045
40 5768 2597
41 2508 6326
42 1237 1998
43 8379 9430
44 8917 5862
45 8660 5849
46 7773 6212
47 8878 3759
48 9782 7210
49 779 210
50 950 9098
51 1871 6595
52 5986 6498
53 8272 5965
54 912 7292
55 567 3813
56 8798 452
57 5411 3203
58 6826 2486
59 2898 185
60 246 5621
61 313 5476
62 4423 6814
63 8421 4115
64 6090 7288
65 479 6319
66 8992 8543
67 2485 985
68 7048 6372
69 4464 4023
70 9967 8238
71 4311 1559
72 212 4309
73 4199 3130
74 5979 6465
75 542 2869
76 6331 3997
77 777 4578
78 539 9844
79 5061 2996
80 1635 7570
81 1491 7315
82 5778 4948
83 5980 6813
84 1199 5520
85 2511 8253
86 7622 6913
87 7016 2582
88 9777 9939
89 5642 5716
90 4469 5420
91 4469 1283
92 8840 5621
93 3598 452
94 2052 1835
95 7361 8870
96 8019 7851
97 9892 4086
98 9647 472
99 613 2762
100 5059 8424
DEMAND_SECTION
1 0
2 4
3 5
4 4
5 5
6 7
7 5
8 4
9 3
10 1
11 7
12 6
13 8
14 4
15 1
16 4
17 9
18 9
19 2
20 9
21 6
22 3
23 10
24 2
25 6
26 5
27 9
28 4
29 6
30 1
31 9
32 7
33 1
34 5
35 9
36 8
37 8
38 10
39 10
40 8
41 6
42 1
43 8
44 7
45 9
46 6
47 2
48 3
49 4
50 4
51 1
52 7
53 4
54 8
55 3
56 1
57 7
58 6
59 3
60 10
61 10
62 8
63 5
64 5
65 9
66 1
67 4
68 1
69 1
70 10
71 8
72 5
73 8
74 5
75 1
76 4
77 8
78 6
79 9
80 6
81 1
82 7
83 9
84 1
85 10
86 3
87 10
88 7
89 4
90 1
91 3
92 2
93 1
94 5
95 2
96 4
97 2
98 1
99 6
100 1
DEPOT_SECTION
1
-1
EOF
