NAME: cvrp_n100_uniform_train_014-k20
TYPE: CVRP
DIMENSION: 100
EDGE_WEIGHT_TYPE: EUC_2D
CAPACITY: 37
NODE_COORD_SECTION
1 5466 9547
2 8611 7912
3 6043 1077
4 3337 1161
5 1394 4913
6 2332 9217
7 4480 3777
8 362 5388
9 5057 3688
10 2886 4037
11 8203 5114
12 4906 1633
13 6961 310
14 6519 1554
15 6497 2033
16 1655 8464
17 281 923
18 3767 1591
19 8134 5410
20 5054 2580
21 5419 5137
22 819 3502
23 8743 5694
24 4596 5880
25 1122 2437
26 8348 2394
27 9096 6058
28 1106 9796
29 4254 9261
30 1588 2266
31 4404 7509
32 9967 3279
33 6620 7122
34 6866 2315
35 460 9852
36 4784 4941
37 4580 9968
38 4816 6507
39 7481 7999
40 3745 5914
41 497 312
42 3379 9930
43 6214 1070
44 6079 6730
45 6892 2198
46 6730 8646
47 666 7533
48 7816 1637
49 3858 6385
50 2488 2664
51 1985 365
52 1069 561
53 6579 9288
54 1167 126
55 7687 1775
56 9411 1124
57 5006 2770
58 4817 9527
59 590 9821
60 9493 3127
61 8592 6765
62 2297 5777
63 8254 7938
64 7140 76
65 4738 1163
66 8690 1851
67 742 8545
68 2281 3766
69 7148 5211
70 6101 1238
71 5596 1395
72 8607 8674
73 745 9885
74 8322 4868
75 2862 9867
76 9251 62
77 7835 4493
78 4615 8627
79 2409 7200
80 224 1009
81 1165 4949
82 7692 3617
83 5624 9537
84 2914 3418
85 12 3447
86 991 631
87 2457 3523
88 1649 2285
89 793 4039
90 4102 8159
91 4521 1318
92 9772 9980
93 7480 2625
94 9561 4201
95 390 3688
96 3176 1507
97 4890 5285
98 497 5895
99 4574 1027
100 1133 1638
DEMAND_SECTION
1 0
2 4
3 3
4 9
5 9
6 2
7 10
8 8
9 6
10 3
11 7
12 10
13 3
14 6
15 1
16 1
17 6
18 1
19 6
20 6
21 8
22 8
23 3
24 8
25 10
26 6
27 5
28 6
29 6
30 7
31 10
32 9
33 3
34 4
35 5
36 3
37 8
38 3
39 6
40 3
41 6
42 2
43 10
44 9
45 3
46 1
47 1
48 1
49 4
50 4
51 2
52 6
53 1
54 6
55 1
56 3
57 8
58 3
59 5
60 6
61 10
62 1
63 8
64 3
65 4
66 8
67 7
68 6
69 3
70 3
71 1
72 7
73 2
74 1
75 1
76 7
77 5
78 8
79 5
80 4
81 9
82 2
83 9
84 8
85 4
86 6
87 6
88 3
89 9
90 2
91 1
92 9
93 1
94 2
95 4
96 8
97 3
98 8
99 5
100 5
DEPOT_SECTION
1
-1
EOF
