NAME: cvrp_n100_uniform_train_002-k20
TYPE: CVRP
DIMENSION: 100
EDGE_WEIGHT_TYPE: EUC_2D
CAPACITY: 42
NODE_COORD_SECTION
1 7544 2694
2 2634 6193
3 8994 3503
4 1805 3638
5 9985 314
6 3845 4898
7 6419 2587
8 930 6010
9 1222 2145
10 4467 8270
11 313 3402
12 2556 6141
13 7454 9944
14 8458 3637
15 8679 8581
16 9961 5007
17 4248 768
18 7843 5795
19 4157 4174
20 2596 1841
21 5894 6699
22 6821 426
23 6524 1435
24 8692 9831
25 2243 6198
26 9532 6558
27 5895 9397
28 3068 508
29 2195 7643
30 6790 5447
31 1933 9647
32 970 404
33 7791 6719
34 6799 8476
35 5442 4389
36 835 8111
37 6918 8395
38 2590 2044
39 2982 52
40 4330 4291
41 8765 3443
42 5806 4304
43 2975 4366
44 9828 9065
45 7939 3593
46 3301 7059
47 3775 1713
48 3236 1401
49 266 310
50 2306 2339
51 2282 6753
52 1985 5151
53 7200 6648
54 6170 4869
55 5908 9790
56 8742 8476
57 6937 7058
58 3145 6716
59 9300 8541
60 6167 6941
61 4490 6910
62 2000 6130
63 3311 3239
64 4452 3665
65 5272 5771
66 5364 8496
67 9288 3319
68 5090 4147
69 2699 2915
70 8349 8211
71 3791 8132
72 8816 9687
73 9249 7064
74 9203 5959
75 4647 1273
76 909 8941
77 8459 6990
78 3023 4909
79 2716 4526
80 8746 8148
81 600 5793
82 1584 1305
83 9156 2936
84 3040 6749
85 6235 6692
86 2688 5504
87 7260 4673
88 6668 9118
89 7571 5090
90 6422 5087
91 4798 2103
92 5541 2186
93 4777 9054
94 3734 1945
95 6501 2152
96 5342 1064
97 831 2155
98 5001 8309
99 3240 8810
100 2001 6198
DEMAND_SECTION
1 0
2 8
3 5
4 6
5 1
6 1
7 9
8 6
9 7
10 6
11 10
12 2
13 8
14 1
15 9
16 10
17 1
18 1
19 9
20 1
21 2
22 1
23 10
24 10
25 5
26 1
27 3
28 1
29 3
30 1
31 7
32 9
33 3
34 1
35 6
36 6
37 6
38 5
39 7
40 3
41 1
42 7
43 1
44 3
45 10
46 8
47 1
48 9
49 8
50 10
51 7
52 4
53 9
54 2
55 1
56 1
57 2
58 10
59 4
60 8
61 7
62 8
63 1
64 9
65 7
66 7
67 6
68 8
69 8
70 1
71 5
72 5
73 2
74 6
75 7
76 4
77 1
78 10
79 1
80 9
81 10
82 9
83 10
84 10
85 6
86 8
87 10
88 8
89 9
90 10
91 4
92 4
93 10
94 4
95 10
96 6
97 3
98 9
99 9
100 5
DEPOT_SECTION
1
-1
EOF
