NAME: cvrp_n100_uniform_train_013-k20
TYPE: CVRP
DIMENSION: 100
EDGE_WEIGHT_TYPE: EUC_2D
CAPACITY: 38
NODE_COORD_SECTION
1 5601 8661
2 6079 521
3 2665 2098
4 3711 8123
5 7768 4336
6 387 5600
7 158 3889
8 2637 2539
9 5306 8376
10 8116 7242
11 6049 2614
12 2175 4573
13 5838 1320
14 6227 3853
15 7983 8951
16 4828 6640
17 8796 743
18 5759 5151
19 3998 7592
20 783 1874
21 8009 2965
22 5039 809
23 254 8531
24 6877 4375
25 3702 4700
26 7694 4322
27 9221 1922
28 3590 4294
29 8700 7165
30 9661 9967
31 1249 7621
32 3368 4348
33 5120 1218
34 5006 7557
35 1492 8910
36 5766 9990
37 8051 1026
38 3376 2185
39 6466 6737
40 4685 9587
41 8254 2864
42 5373 3974
43 5747 9795
44 7094 3474
45 1505 4695
46 2633 5722
47 2310 6313
48 5594 4787
49 8262 6955
50 4672 3212
51 1241 7977
52 1019 203
53 0 8068
54 7544 8352
55 111 9085
56 4348 5466
57 288 2866
58 4956 8760
59 7498 883
60 2905 6026
61 4168 2066
62 3390 2485
63 4497 3608
64 2138 3574
65 8301 4580
66 8910 270
67 4450 6202
68 9966 2705
69 3682 3868
70 2063 8986
71 7558 2214
72 3660 850
73 828 1841
74 2149 8854
75 3536 2331
76 4658 7646
77 1578 1173
78 7363 7243
79 2264 7346
80 8979 3999
81 9469 2932
82 907 2209
83 8445 6956
84 9856 1895
85 1157 3690
86 1358 9238
87 9218 9814
88 6950 6746
89 6861 4594
90 7279 2620
91 8151 1045
92 8256 552
93 7236 6606
94 7204 4030
95 8936 1525
96 228 129
97 3483 843
98 4165 4437
99 7454 6703
100 9079 8621
DEMAND_SECTION
1 0
2 9
3 4
4 9
5 2
6 10
7 2
8 2
9 1
10 5
11 3
12 3
13 1
14 3
15 3
16 4
17 5
18 10
19 9
20 10
21 10
22 7
23 9
24 4
25 7
26 7
27 5
28 8
29 7
30 8
31 1
32 1
33 4
34 7
35 7
36 2
37 6
38 1
39 6
40 4
41 8
42 5
43 7
44 1
45 10
46 8
47 6
48 7
49 1
50 10
51 5
52 5
53 1
54 1
55 5
56 5
57 3
58 1
59 5
60 3
61 4
62 2
63 9
64 2
65 8
66 9
67 2
68 4
69 4
70 5
71 4
72 1
73 9
74 6
75 1
76 9
77 2
78 3
79 7
80 6
81 9
82 7
83 1
84 10
85 4
86 10
87 6
88 7
89 2
90 4
91 1
92 9
93 9
94 8
95 2
96 1
97 9
98 4
99 6
100 3
DEPOT_SECTION
1
-1
EOF
