NAME: cvrp_n100_uniform_train_012-k20
TYPE: CVRP
DIMENSION: 100
EDGE_WEIGHT_TYPE: EUC_2D
CAPACITY: 39
NODE_COORD_SECTION
1 9843 6726
2 9013 2723
3 3295 9139
4 3784 9212
5 9996 271
6 6420 5
7 6885 6841
8 4778 682
9 9614 2246
10 8292 6858
11 4965 3763
12 3320 4939
13 2615 1077
14 2793 4821
15 1728 7075
16 4101 3239
17 888 2067
18 4716 5303
19 7499 4090
20 6393 1855
21 7020 4366
22 4831 9545
23 4475 8827
24 2703 129
25 4437 6820
26 2463 9099
27 3252 3853
28 4669 8265
29 3933 6103
30 899 9317
31 7784 908
32 4428 2426
33 6931 5571
34 5686 5259
35 9509 4716
36 6311 3373
37 6049 2513
38 948 9791
39 6692 5773
40 8896 7883
41 7619 5080
42 9826 297
43 4218 1371
44 3036 2457
45 8640 150
46 7279 6994
47 9235 6903
48 8850 1054
49 7636 522
50 6929 6514
51 3410 5135
52 4347 236
53 7011 845
54 463 9674
55 4145 7468
56 1965 7982
57 7063 4701
58 9363 5827
59 799 9625
60 7725 1852
61 9597 4865
62 1928 8640
63 4259 9213
64 5006 8425
65 3129 5251
66 581 8411
67 9440 5198
68 1010 2410
69 8148 1406
70 4592 2494
71 8166 5957
72 4935 5539
73 3829 3704
74 5869 9473
75 537 7794
76 1790 4315
77 3863 6927
78 9065 9872
79 3412 7546
80 4803 895
81 2058 4834
82 4816 4723
83 6854 156
84 5675 1699
85 8669 7641
86 6473 6600
87 7786 3800
88 3491 1782
89 1508 9836
90 4904 5503
91 6842 9663
92 6775 2766
93 3676 4188
94 3183 179
95 9982 9456
96 995 8331
97 9679 2319
98 1215 79
99 174 2281
100 6951 5835
DEMAND_SECTION
1 0
2 2
3 4
4 3
5 10
6 6
7 8
8 6
9 9
10 5
11 6
12 2
13 9
14 4
15 10
16 4
17 10
18 5
19 9
20 8
21 8
22 2
23 5
24 7
25 6
26 6
27 6
28 10
29 1
30 3
31 9
32 5
33 8
34 5
35 5
36 5
37 10
38 2
39 7
40 8
41 5
42 3
43 1
44 1
45 5
46 3
47 4
48 9
49 7
50 7
51 1
52 1
53 5
54 3
55 2
56 3
57 8
58 3
59 9
60 3
61 10
62 2
63 8
64 1
65 6
66 5
67 9
68 5
69 4
70 10
71 9
72 10
73 1
74 3
75 6
76 1
77 5
78 4
79 6
80 1
81 6
82 10
83 4
84 4
85 1
86 5
87 2
88 1
89 3
90 5
91 10
92 2
93 10
94 10
95 1
96 6
97 8
98 10
99 1
100 6
DEPOT_SECTION
1
-1
EOF
