NAME: cvrp_n100_uniform_train_018-k20
TYPE: CVRP
DIMENSION: 100
EDGE_WEIGHT_TYPE: EUC_2D
CAPACITY: 42
NODE_COORD_SECTION
1 8831 3732
2 991 8592
3 9989 1370
4 5697 421
5 2141 3352
6 761 8477
7 5154 8288
8 3869 8864
9 8507 8522
10 8438 4331
11 8596 6476
12 4545 4150
13 1726 5553
14 3933 364
15 9728 2161
16 4387 3978
17 1411 6929
18 2682 4843
19 4925 556
20 1875 2774
21 4492 3481
22 440 7862
23 4070 4929
24 7703 3502
25 6699 3466
26 626 3491
27 9976 5147
28 9493 7128
29 5076 4501
30 6034 3805
31 6411 4319
32 7058 4896
33 763 3862
34 8274 8854
35 7276 5429
36 1736 951
37 1607 1642
38 2811 7320
39 2792 9628
40 9324 3118
41 4723 35
42 877 2419
43 9075 7740
44 1370 6937
45 4341 9439
46 6255 6072
47 4625 9280
48 1957 9387
49 5961 8526
50 7571 3829
51 8771 9225
52 3382 5508
53 1575 764
54 2454 4570
55 6563 665
56 660 8985
57 5087 5283
58 9946 826
59 8314 3793
60 1480 6261
61 6119 8174
62 4564 6428
63 5125 308
64 6069 8283
65 1087 3199
66 3907 7555
67 960 6752
68 5747 4451
69 553 4536
70 1773 8651
71 4689 4011
72 3675 1118
73 4758 327
74 8351 9759
75 2514 408
76 7981 1711
77 8408 9127
78 6948 5778
79 3198 4240
80 4651 3785
81 8548 7984
82 8097 9689
83 6098 912
84 4966 9330
85 9404 3471
86 4175 2775
87 2378 9244
88 8322 7076
89 4425 6998
90 4689 6870
91 3845 992
92 8792 2570
93 2829 6732
94 5923 5064
95 238 6101
96 9803 6086
97 6858 332
98 1908 1788
99 7210 2358
100 1813 8018
DEMAND_SECTION
1 0
2 7
3 3
4 6
5 5
6 9
7 7
8 6
9 10
10 2
11 8
12 9
13 6
14 5
15 9
16 1
17 5
18 6
19 8
20 4
21 5
22 1
23 7
24 5
25 3
26 9
27 5
28 2
29 9
30 2
31 2
32 4
33 7
34 10
35 5
36 6
37 9
38 5
39 6
40 9
41 8
42 2
43 7
44 6
45 10
46 9
47 1
48 10
49 6
50 1
51 3
52 2
53 8
54 7
55 8
56 4
57 5
58 8
59 7
60 2
61 5
62 1
63 5
64 4
65 4
66 4
67 4
68 4
69 5
70 10
71 8
72 10
73 4
74 7
75 6
76 10
77 8
78 6
79 1
80 6
81 9
82 5
83 1
84 2
85 7
86 7
87 7
88 5
89 6
90 3
91 4
92 3
93 8
94 5
95 6
96 7
97 10
98 5
99 2
100 6
DEPOT_SECTION
1
-1
EOF
