NAME: cvrp_n100_uniform_train_016-k20
TYPE: CVRP
DIMENSION: 100
EDGE_WEIGHT_TYPE: EUC_2D
CAPACITY: 40
NODE_COORD_SECTION
1 7739 4867
2 230 8360
3 7720 2703
4 4721 374
5 8530 3130
6 7550 6957
7 6605 2110
8 1977 8040
9 7148 1592
10 9820 3590
11 7880 7341
12 7133 5768
13 6494 4005
14 462 7036
15 981 8202
16 8025 1830
17 9215 3152
18 9416 4011
19 5037 541
20 4455 6995
21 1563 8749
22 3163 7257
23 6861 6369
24 932 8537
25 8350 9976
26 812 1119
27 6814 2803
28 689 9234
29 6657 4360
30 7480 8707
31 3992 9634
32 7819 1638
33 1697 6710
34 6751 3396
35 7077 7026
36 6134 1185
37 1483 3797
38 4515 579
39 182 3315
40 2116 9103
41 6062 5558
42 1459 696
43 5134 9395
44 5069 7090
45 9583 2041
46 4029 1618
47 7662 9060
48 238 2452
49 5932 3809
50 350 4597
51 1880 2058
52 9117 6911
53 9136 7373
54 6400 5555
55 8754 9147
56 4223 9933
57 843 1808
58 297 4865
59 5666 4314
60 3308 5154
61 7200 8545
62 3078 1405
63 9699 919
64 4626 9626
65 9692 6521
66 10000 950
67 1410 8778
68 3232 9984
69 920 9344
70 4832 8437
71 270 4476
72 4967 3795
73 3393 6840
74 7440 4992
75 5392 3605
76 7041 5048
77 3921 8921
78 1367 2747
79 3418 8126
80 3177 3783
81 779 5487
82 2297 8853
83 9348 3353
84 3660 3851
85 5175 1040
86 7047 9059
87 8063 2089
88 6224 3189
89 4361 2906
90 3891 7048
91 2859 778
92 5489 854
93 4232 7533
94 4716 7347
95 5474 7773
96 3332 9055
97 5711 9241
98 7285 7337
99 4792 7159
100 1702 4526
DEMAND_SECTION
1 0
2 7
3 10
4 5
5 9
6 8
7 7
8 10
9 6
10 5
11 1
12 2
13 3
14 1
15 4
16 6
17 1
18 10
19 7
20 2
21 3
22 10
23 1
24 8
25 2
26 2
27 1
28 5
29 1
30 8
31 3
32 10
33 6
34 9
35 6
36 8
37 6
38 1
39 7
40 1
41 7
42 6
43 6
44 10
45 4
46 3
47 3
48 8
49 6
50 5
51 8
52 8
53 9
54 9
55 5
56 8
57 9
58 5
59 10
60 9
61 4
62 5
63 7
64 3
65 5
66 5
67 5
68 3
69 3
70 6
71 7
72 7
73 7
74 9
75 1
76 3
77 1
78 10
79 9
80 6
81 5
82 2
83 9
84 10
85 2
86 4
87 3
88 9
89 2
90 7
91 5
92 5
93 6
94 6
95 3
96 1
97 6
98 2
99 3
100 3
DEPOT_SECTION
1
-1
EOF
