NAME: cvrp_n100_uniform_train_006-k20
TYPE: CVRP
DIMENSION: 100
EDGE_WEIGHT_TYPE: EUC_2D
CAPACITY: 42
NODE_COORD_SECTION
1 9782 260
2 4981 1033
3 9611 3923
4 4094 7549
5 8288 3432
6 400 9982
7 1323 4825
8 2854 5131
9 2429 4487
10 7276 9633
11 6066 5419
12 6992 4489
13 5530 4200
14 6014 7224
15 1259 8052
16 5400 1476
17 9599 9149
18 658 3692
19 9042 6104
20 4218 6784
21 1519 8679
22 8734 9801
23 4413 8893
24 3143 6968
25 2711 9324
26 5733 7002
27 6341 939
28 6639 3095
29 8156 9144
30 7892 9870
31 2735 7021
32 341 2828
33 8801 3228
34 7438 6731
35 9548 1002
36 7261 7171
37 3646 2709
38 9972 5335
39 2342 5819
40 2922 6641
41 480 2762
42 9794 9977
43 1000 7300
44 618 3818
45 242 2237
46 661 7498
47 9526 67
48 2016 4625
49 7042 6725
50 1123 7611
51 8310 7423
52 8706 9736
53 8237 672
54 3065 1471
55 7657 6165
56 5685 5228
57 2034 1280
58 8737 7947
59 3064 2967
60 2705 389
61 3612 2555
62 3324 8232
63 3015 7159
64 423 8167
65 7505 5291
66 6804 7577
67 7710 3511
68 8088 2429
69 707 8605
70 1867 9905
71 1688 2779
72 3743 7008
73 7053 1749
74 4150 3939
75 7223 903
76 4504 1380
77 8444 9934
78 7345 9761
79 489 6216
80 3863 929
81 1371 6189
82 2513 3355
83 9501 2711
84 8414 5319
85 6099 6673
86 20 5419
87 1284 8112
88 5298 3744
89 8028 26
90 4529 593
91 6670 7403
92 8355 4869
93 351 4856
94 2971 4064
95 6692 2750
96 8467 3597
97 1176 624
98 4061 7587
99 6418 8655
100 3273 8987
DEMAND_SECTION
1 0
2 2
3 2
4 7
5 10
6 5
7 4
8 5
9 4
10 10
11 8
12 4
13 5
14 1
15 10
16 6
17 7
18 8
19 5
20 2
21 6
22 5
23 4
24 8
25 10
26 5
27 9
28 6
29 1
30 2
31 3
32 5
33 10
34 3
35 7
36 1
37 9
38 8
39 7
40 3
41 7
42 4
43 9
44 9
45 9
46 9
47 5
48 9
49 5
50 1
51 3
52 7
53 7
54 6
55 9
56 7
57 5
58 2
59 9
60 4
61 5
62 5
63 4
64 7
65 7
66 6
67 10
68 8
69 8
70 6
71 3
72 9
73 10
74 1
75 3
76 3
77 4
78 2
79 7
80 2
81 4
82 8
83 5
84 9
85 9
86 2
87 7
88 10
89 7
90 4
91 2
92 1
93 3
94 6
95 10
96 9
97 2
98 7
99 9
100 6
DEPOT_SECTION
1
-1
EOF
