NAME: cvrp_n100_uniform_train_003-k20
TYPE: CVRP
DIMENSION: 100
EDGE_WEIGHT_TYPE: EUC_2D
CAPACITY: 44
NODE_COORD_SECTION
1 5817 7831
2 3892 1127
3 376 8832
4 9492 8335
5 5956 5792
6 9373 570
7 4111 7910
8 9118 1546
9 7908 566
10 257 3739
11 3172 92
12 4781 7878
13 8169 2995
14 9367 4349
15 3584 8850
16 7151 2194
17 8470 5341
18 2847 8666
19 2059 4663
20 817 1790
21 3166 6927
22 3024 6123
23 7131 9573
24 1911 1164
25 2483 7754
26 5419 664
27 5708 8339
28 7700 3488
29 6263 8451
30 4488 3739
31 1591 3627
32 9383 3525
33 6025 7164
34 8927 5295
35 5605 6397
36 5759 2712
37 1626 2046
38 8097 3059
39 2576 2731
40 9612 751
41 5695 3749
42 1772 2539
43 8790 2949
44 7201 9511
45 2014 5062
46 5369 4692
47 8876 2390
48 1986 2449
49 2045 924
50 6882 3088
51 2656 9928
52 9273 7559
53 7754 8542
54 1270 7291
55 3536 4183
56 6199 244
57 3940 852
58 8921 4961
59 6858 111
60 5751 6698
61 7573 6939
62 27 2526
63 2797 9926
64 8483 6483
65 8540 3329
66 9750 6618
67 3786 7688
68 5147 8291
69 8451 111
70 4361 3437
71 8589 4218
72 9865 5326
73 4723 3762
74 6692 1505
75 8174 4021
76 5805 3702
77 5634 6181
78 9461 8414
79 9255 636
80 4663 2511
81 742 517
82 6309 4769
83 1795 2627
84 5900 3328
85 6003 5647
86 4559 6285
87 3766 9657
88 6096 1335
89 4343 1358
90 7702 4914
91 7201 431
92 8857 7605
93 2630 726
94 8492 8010
95 5401 8954
96 3903 2830
97 4726 1399
98 8014 5399
99 9935 9259
100 3962 1314
DEMAND_SECTION
1 0
2 8
3 10
4 7
5 1
6 4
7 4
8 8
9 5
10 6
11 1
12 6
13 5
14 10
15 9
16 4
17 8
18 4
19 6
20 10
21 7
22 4
23 10
24 8
25 1
26 8
27 3
28 6
29 7
30 8
31 3
32 7
33 5
34 5
35 8
36 9
37 6
38 4
39 8
40 7
41 9
42 4
43 9
44 4
45 10
46 3
47 9
48 7
49 6
50 6
51 4
52 9
53 1
54 1
55 10
56 4
57 1
58 6
59 4
60 9
61 4
62 7
63 8
64 10
65 2
66 5
67 8
68 10
69 3
70 3
71 3
72 3
73 3
74 7
75 9
76 9
77 9
78 10
79 9
80 3
81 7
82 4
83 4
84 6
85 5
86 3
87 6
88 2
89 6
90 7
91 8
92 6
93 6
94 4
95 7
96 7
97 2
98 6
99 10
100 8
DEPOT_SECTION
1
-1
EOF
