NAME: cvrp_n100_uniform_train_008-k20
TYPE: CVRP
DIMENSION: 100
EDGE_WEIGHT_TYPE: EUC_2D
CAPACITY: 38
NODE_COORD_SECTION
1 586 5032
2 5221 7601
3 1192 8982
4 9509 895
5 9851 1336
6 9161 2091
7 7256 2803
8 2791 4190
9 1060 2721
10 6769 7130
11 5283 3991
12 6698 5001
13 9076 8340
14 389 1735
15 4015 7960
16 2408 416
17 6920 3900
18 8420 4572
19 9428 4392
20 6449 1117
21 7238 5414
22 4159 6796
23 5636 6783
24 604 9234
25 6249 1012
26 2640 8361
27 1460 4099
28 6843 8432
29 5273 2615
30 3408 3260
31 38 987
32 3617 8031
33 5118 7387
34 2328 613
35 4292 1878
36 3082 8656
37 6915 8297
38 5126 3174
39 1247 2983
40 6411 7711
41 3647 3726
42 1972 4132
43 4881 5695
44 767 3825
45 295 202
46 3745 3864
47 6387 6700
48 6544 7114
49 6109 5874
50 5512 142
51 3595 859
52 6637 1810
53 2902 2887
54 7238 1431
55 1535 7146
56 4860 1219
57 9564 998
58 9965 3923
59 3496 3225
60 226 5143
61 6634 4394
62 8637 4891
63 2454 117
64 2358 5095
65 505 30
66 1617 4120
67 2426 3804
68 3793 9551
69 9593 1167
70 9455 7896
71 6283 2405
72 5361 6459
73 5681 3724
74 3665 5640
75 7770 90
76 7428 5775
77 9375 2905
78 2486 5147
79 3596 5207
80 4099 5132
81 9312 9301
82 1329 8489
83 3823 7375
84 8870 2643
85 952 2727
86 8097 996
87 1134 2154
88 8406 3365
89 5746 1524
90 9134 6245
91 571 292
92 1759 5296
93 1365 3255
94 2101 3632
95 284 4555
96 513 186
97 9480 4316
98 9115 9880
99 7561 4178
100 2990 1218
DEMAND_SECTION
1 0
2 6
3 7
4 6
5 7
6 3
7 2
8 1
9 3
10 1
11 3
12 3
13 7
14 1
15 8
16 5
17 9
18 3
19 1
20 5
21 2
22 6
23 2
24 3
25 10
26 7
27 4
28 7
29 9
30 4
31 6
32 10
33 2
34 10
35 6
36 1
37 3
38 4
39 3
40 10
41 4
42 9
43 4
44 4
45 3
46 8
47 5
48 8
49 7
50 10
51 2
52 8
53 1
54 6
55 4
56 3
57 6
58 5
59 8
60 3
61 3
62 2
63 2
64 8
65 1
66 2
67 4
68 8
69 5
70 2
71 8
72 10
73 2
74 6
75 2
76 9
77 10
78 2
79 7
80 8
81 2
82 2
83 2
84 10
85 3
86 3
87 3
88 5
89 3
90 9
91 3
92 8
93 4
94 9
95 7
96 4
97 10
98 6
99 10
100 6
DEPOT_SECTION
1
-1
EOF
