NAME: cvrp_n100_uniform_train_017-k20
TYPE: CVRP
DIMENSION: 100
EDGE_WEIGHT_TYPE: EUC_2D
CAPACITY: 38
NODE_COORD_SECTION
1 9342 9205
2 6600 418
3 9481 4158
4 6548 6360
5 9401 2673
6 2496 2534
7 7973 2300
8 9820 3352
9 3354 7385
10 3718 7835
11 5001 821
12 3384 628
13 6179 1092
14 1342 7202
15 4934 273
16 7218 8273
17 648 7343
18 1826 389
19 9261 4123
20 9858 5071
21 6620 9977
22 4037 7703
23 4350 6290
24 2554 3965
25 6086 8917
26 9655 9843
27 6240 3020
28 4386 4235
29 5181 573
30 6630 1179
31 3916 3321
32 8519 9913
33 160 3991
34 4775 5956
35 6898 249
36 4856 9419
37 4198 3612
38 838 1140
39 4576 1184
40 147 6246
41 9819 6815
42 5377 1745
43 7282 4565
44 996 9001
45 5384 1323
46 9346 929
47 9988 4780
48 6090 3654
49 7860 9645
50 64 4740
51 9638 7611
52 4542 5858
53 3058 9132
54 9387 902
55 3497 2333
56 6246 3584
57 513 2763
58 8898 9814
59 7115 3743
60 8795 3992
61 8134 4310
62 7172 2046
63 7900 9448
64 2784 7930
65 3632 1687
66 9218 5824
67 1646 346
68 9655 2991
69 6731 8347
70 9331 670
71 9570 2312
72 9063 7838
73 9704 8518
74 4953 4032
75 4100 1129
76 280 1381
77 7991 5696
78 1435 9408
79 7297 852
80 801 2089
81 336 5580
82 1977 2271
83 4991 8695
84 3982 9178
85 1579 4
86 6606 2926
87 6112 9947
88 9857 1525
89 8970 2739
90 6171 3519
91 9020 3179
92 1636 2666
93 7588 1176
94 2677 3657
95 4415 7398
96 9736 2576
97 4870 5745
98 6548 3743
99 6337 1466
100 3425 1784
DEMAND_SECTION
1 0
2 2
3 4
4 5
5 1
6 1
7 7
8 5
9 8
10 9
11 2
12 1
13 1
14 5
15 2
16 7
17 10
18 1
19 2
20 8
21 4
22 1
23 9
24 10
25 10
26 5
27 2
28 10
29 3
30 10
31 6
32 5
33 8
34 7
35 5
36 2
37 4
38 2
39 6
40 10
41 4
42 3
43 10
44 5
45 6
46 4
47 1
48 8
49 4
50 4
51 2
52 4
53 2
54 10
55 8
56 6
57 3
58 5
59 3
60 6
61 7
62 5
63 6
64 10
65 8
66 6
67 2
68 7
69 5
70 6
71 4
72 7
73 8
74 5
75 9
76 2
77 3
78 6
79 2
80 7
81 1
82 6
83 3
84 4
85 4
86 6
87 4
88 6
89 4
90 6
91 9
92 1
93 1
94 10
95 2
96 8
97 2
98 10
99 1
100 9
DEPOT_SECTION
1
-1
EOF
