NAME: cvrp_n100_uniform_train_019-k20
TYPE: CVRP
DIMENSION: 100
EDGE_WEIGHT_TYPE: EUC_2D
CAPACITY: 43
NODE_COORD_SECTION
1 9753 7552
2 6860 460
3 1452 4155
4 4349 3757
5 935 6107
6 6291 168
7 6360 9591
8 341 1420
9 9339 458
10 1925 8844
11 603 6380
12 7743 6929
13 3138 5813
14 9644 669
15 242 4473
16 702 1669
17 7039 2254
18 4439 2441
19 9501 690
20 1886 3688
21 6489 1695
22 466 9232
23 352 3340
24 5309 532
25 3660 2705
26 2931 8377
27 9897 637
28 4894 5021
29 3100 2135
30 6505 9481
31 3400 6005
32 4934 1612
33 8349 7254
34 4015 5790
35 4137 4422
36 7775 4050
37 2400 7296
38 3100 9584
39 9278 47
40 4326 5398
41 827 7231
42 446 6145
43 3998 7271
44 1430 6532
45 8084 1900
46 2914 2324
47 708 7487
48 1822 8087
49 608 5514
50 7588 6352
51 7212 5253
52 9617 8512
53 7628 1839
54 5100 8000
55 2912 2344
56 1938 3417
57 6053 5303
58 4608 7513
59 6392 7832
60 215 1039
61 4376 5220
62 8065 4139
63 435 3885
64 4763 5156
65 69 1979
66 259 2088
67 4786 8056
68 3030 7106
69 7758 6422
70 6133 5654
71 3007 4780
72 1651 1921
73 1911 2354
74 582 6057
75 2134 8781
76 4758 6080
77 1570 6463
78 7205 2456
79 8219 1
80 2073 5945
81 8904 140
82 2386 3842
83 9356 9325
84 504 862
85 900 3809
86 1622 9782
87 3359 2691
88 8384 6596
89 3653 932
90 4251 6388
91 4656 6147
92 8925 6297
93 8886 7044
94 2941 5357
95 2075 5901
96 5277 4791
97 2303 2018
98 5434 7355
99 7764 2258
100 5225 170
DEMAND_SECTION
1 0
2 8
3 10
4 5
5 9
6 2
7 4
8 9
9 6
10 10
11 9
12 9
13 2
14 10
15 6
16 7
17 2
18 2
19 9
20 4
21 2
22 10
23 5
24 9
25 9
26 7
27 6
28 9
29 7
30 2
31 6
32 6
33 10
34 7
35 3
36 1
37 1
38 7
39 10
40 9
41 2
42 2
43 4
44 9
45 8
46 3
47 9
48 4
49 9
50 5
51 6
52 8
53 2
54 3
55 9
56 7
57 9
58 10
59 2
60 5
61 8
62 4
63 6
64 1
65 4
66 10
67 3
68 6
69 5
70 5
71 7
72 1
73 10
74 1
75 10
76 3
77 9
78 1
79 5
80 10
81 2
82 6
83 3
84 10
85 4
86 4
87 6
88 6
89 1
90 9
91 8
92 10
93 2
94 6
95 10
96 6
97 6
98 2
99 6
100 2
DEPOT_SECTION
1
-1
EOF
