NAME: cvrp_n100_uniform_train_009-k20
TYPE: CVRP
DIMENSION: 100
EDGE_WEIGHT_TYPE: EUC_2D
CAPACITY: 38
NODE_COORD_SECTION
1 644 1254
2 1718 9787
3 281 7511
4 7787 5954
5 2831 5822
6 6022 6826
7 8899 9074
8 7557 4436
9 527 8667
10 1596 3326
11 8276 1300
12 4448 6515
13 7307 3235
14 1085 1447
15 8269 3732
16 8087 7785
17 6746 3539
18 2674 2194
19 8981 5655
20 476 2352
21 8944 7741
22 7383 4743
23 9892 5414
24 5972 8642
25 2632 8332
26 6067 6835
27 786 4954
28 9362 1630
29 4937 3019
30 5951 2532
31 6037 375
32 874 8886
33 4046 2686
34 1069 7798
35 4939 3986
36 5349 9620
37 8617 7924
38 4843 7240
39 4831 9145
40 2364 5041
41 1397 5066
42 6228 1606
43 4026 3277
44 6789 9087
45 7671 5790
46 7430 8616
47 7342 968
48 9457 1517
49 4404 9607
50 9911 4359
51 5632 7130
52 3033 6922
53 2007 5226
54 62 8880
55 2966 290
56 5505 4977
57 9456 2478
58 303 8942
59 4310 4187
60 8463 8165
61 859 1688
62 3091 8399
63 775 5584
64 3980 9940
65 772 3233
66 757 6460
67 529 7267
68 3447 8530
69 9049 9771
70 3657 8642
71 3434 4948
72 8801 6603
73 4334 5897
74 3905 9857
75 4033 5103
76 7437 9897
77 7938 9498
78 952 6704
79 7065 7691
80 7531 6868
81 8136 1767
82 9021 8677
83 1337 5977
84 7651 5978
85 2527 3071
86 6183 9788
87 301 1232
88 6143 8849
89 2038 7174
90 6322 2038
91 1761 6682
92 6595 4127
93 3626 2626
94 2265 473
95 2837 8784
96 8222 5981
97 7160 8106
98 8295 8692
99 5443 4304
100 9636 6622
DEMAND_SECTION
1 0
2 8
3 6
4 10
5 8
6 6
7 1
8 6
9 3
10 1
11 2
12 1
13 8
14 2
15 4
16 4
17 7
18 2
19 6
20 5
21 9
22 9
23 9
24 3
25 6
26 1
27 7
28 6
29 7
30 7
31 3
32 9
33 3
34 4
35 10
36 7
37 7
38 9
39 1
40 5
41 1
42 3
43 7
44 7
45 4
46 1
47 2
48 5
49 6
50 7
51 8
52 3
53 8
54 1
55 3
56 6
57 10
58 2
59 5
60 8
61 3
62 5
63 1
64 2
65 6
66 3
67 8
68 1
69 3
70 8
71 6
72 9
73 5
74 7
75 3
76 9
77 5
78 2
79 4
80 5
81 8
82 9
83 6
84 10
85 5
86 6
87 5
88 2
89 4
90 4
91 6
92 6
93 4
94 6
95 4
96 3
97 8
98 4
99 6
100 6
DEPOT_SECTION
1
-1
EOF
