NAME: cvrp_n100_uniform_train_001-k20
TYPE: CVRP
DIMENSION: 100
EDGE_WEIGHT_TYPE: EUC_2D
CAPACITY: 40
NODE_COORD_SECTION
1 3172 6033
2 6955 5835
3 2949 9112
4 531 9767
5 6578 6769
6 9691 8071
7 3853 9903
8 5416 6757
9 2385 2047
10 6083 6491
11 7579 1687
12 1786 1931
13 4418 2517
14 7592 5546
15 4340 1450
16 851 9575
17 4807 8149
18 8315 7390
19 6064 8121
20 5749 9970
21 2608 8814
22 3536 3827
23 5597 393
24 9248 6733
25 6502 4914
26 2683 9884
27 869 4024
28 7075 2267
29 8384 5267
30 7444 3464
31 9052 9884
32 5904 4003
33 272 964
34 7741 5230
35 261 6870
36 4784 8139
37 6306 9800
38 9032 4999
39 218 400
40 1542 7400
41 7769 2496
42 8001 341
43 1264 9936
44 9220 7404
45 7527 247
46 7539 9172
47 5626 3635
48 9850 6106
49 2967 9841
50 1655 2632
51 4257 2875
52 6115 6316
53 8820 6124
54 3942 9865
55 3444 2022
56 7893 7311
57 8962 4130
58 4613 3605
59 5573 2326
60 9561 9340
61 2690 1795
62 207 6841
63 1343 8055
64 4130 1525
65 2328 7851
66 8992 3766
67 6659 4471
68 2739 6915
69 358 1133
70 7436 4065
71 333 4951
72 4057 8831
73 7538 8204
74 7922 1405
75 1701 8240
76 8664 7158
77 9103 2098
78 2737 873
79 8318 5920
80 7114 1014
81 5438 9579
82 1243 9268
83 4380 2973
84 2477 7826
85 7898 6236
86 2291 3882
87 2738 1551
88 5740 797
89 7408 7040
90 8181 3219
91 8636 236
92 1841 8697
93 3120 3742
94 6758 9212
95 6392 3566
96 5038 8957
97 8783 6133
98 2147 8571
99 3585 8161
100 4601 4135
DEMAND_SECTION
1 0
2 6
3 1
4 1
5 7
6 1
7 9
8 6
9 4
10 8
11 9
12 5
13 4
14 10
15 2
16 6
17 6
18 9
19 4
20 4
21 10
22 4
23 2
24 5
25 3
26 4
27 9
28 7
29 8
30 8
31 7
32 7
33 9
34 6
35 5
36 4
37 1
38 10
39 8
40 10
41 4
42 4
43 3
44 6
45 2
46 9
47 1
48 3
49 2
50 5
51 1
52 8
53 10
54 7
55 6
56 10
57 1
58 9
59 8
60 5
61 5
62 9
63 3
64 6
65 1
66 6
67 2
68 1
69 4
70 8
71 3
72 7
73 8
74 3
75 8
76 1
77 10
78 7
79 9
80 5
81 4
82 6
83 5
84 8
85 8
86 7
87 8
88 5
89 6
90 8
91 5
92 4
93 2
94 1
95 8
96 2
97 4
98 3
99 8
100 3
DEPOT_SECTION
1
-1
EOF
