NAME: cvrp_n100_uniform_train_004-k20
TYPE: CVRP
DIMENSION: 100
EDGE_WEIGHT_TYPE: EUC_2D
CAPACITY: 40
NODE_COORD_SECTION
1 6219 2566
2 7503 1811
3 3124 672
4 449 2711
5 6845 7580
6 7214 3032
7 8535 566
8 6110 5789
9 7155 8486
10 8339 6360
11 1501 3464
12 7591 9218
13 3693 9831
14 8931 9197
15 9400 6933
16 1877 9288
17 7314 3283
18 2527 4702
19 8664 6821
20 7270 6050
21 7737 3029
22 1534 3161
23 233 632
24 2662 5777
25 2165 1499
26 3144 3269
27 1968 1744
28 9387 9518
29 8414 9149
30 5609 2338
31 1389 4514
32 333 9569
33 6063 9909
34 2110 1933
35 2646 7917
36 5576 6848
37 281 3684
38 8903 1059
39 9197 1612
40 8646 1466
41 5419 1555
42 1169 6467
43 235 9982
44 1579 7726
45 4373 3388
46 7979 495
47 4094 3436
48 2228 1227
49 1232 5515
50 6344 7795
51 3886 5009
52 6661 5827
53 8230 2740
54 9357 4924
55 4501 8717
56 3809 5640
57 8923 1025
58 7005 5099
59 7144 262
60 6661 9902
61 9594 8692
62 9853 4330
63 822 3247
64 9614 1488
65 7390 1444
66 9655 824
67 4751 608
68 7805 6665
69 9659 8113
70 7209 1075
71 132 7779
72 9839 3833
73 294 9592
74 4439 4835
75 865 6741
76 1220 2478
77 5385 1067
78 5250 476
79 3840 209
80 4004 7261
81 1980 7962
82 8607 8923
83 727 1559
84 5285 987
85 9068 1379
86 323 4025
87 3683 9625
88 7012 3744
89 6084 8536
90 8654 5745
91 1585 6812
92 8368 7566
93 9557 5344
94 5215 4761
95 7141 6344
96 3366 2726
97 1268 8273
98 6186 7884
99 9851 67
100 2046 8119
DEMAND_SECTION
1 0
2 4
3 2
4 4
5 9
6 10
7 8
8 8
9 1
10 5
11 7
12 7
13 5
14 4
15 1
16 4
17 3
18 5
19 8
20 7
21 2
22 6
23 9
24 6
25 9
26 9
27 5
28 3
29 1
30 4
31 10
32 10
33 7
34 1
35 1
36 9
37 6
38 9
39 8
40 1
41 9
42 10
43 2
44 5
45 8
46 8
47 3
48 2
49 2
50 8
51 9
52 5
53 5
54 9
55 3
56 10
57 2
58 1
59 10
60 6
61 3
62 3
63 3
64 1
65 1
66 2
67 5
68 8
69 5
70 1
71 4
72 8
73 4
74 5
75 6
76 1
77 7
78 4
79 7
80 2
81 4
82 9
83 10
84 5
85 10
86 4
87 8
88 4
89 5
90 2
91 1
92 7
93 5
94 6
95 9
96 9
97 6
98 10
99 3
100 5
DEPOT_SECTION
1
-1
EOF
