NAME: cvrp_n100_uniform_train_005-k20
TYPE: CVRP
DIMENSION: 100
EDGE_WEIGHT_TYPE: EUC_2D
CAPACITY: 40
NODE_COORD_SECTION
1 5864 9837
2 5730 5767
3 5153 4303
4 4835 6940
5 1011 5398
6 3759 8874
7 2113 2717
8 5256 5511
9 3463 8158
10 2488 4146
11 5718 3488
12 2913 1418
13 6748 8824
14 4396 1885
15 9662 6700
16 2371 8603
17 5949 870
18 6929 106
19 7153 9577
20 8262 5022
21 7054 4222
22 7986 1948
23 7359 4995
24 9178 2486
25 2912 8633
26 2573 1302
27 5082 9143
28 9545 4140
29 7592 6389
30 122 5269
31 7325 3144
32 8023 1599
33 8600 6541
34 8997 2220
35 5947 1325
36 3110 7179
37 74 2189
38 9268 2740
39 4925 1993
40 2072 4703
41 5341 6957
42 1291 2509
43 990 5077
44 9257 4948
45 2646 7647
46 8265 984
47 1958 2551
48 9524 233
49 853 5519
50 1095 8405
51 6959 8508
52 6966 8468
53 9553 2877
54 9696 809
55 2868 3577
56 8221 3091
57 5400 131
58 5276 8180
59 3611 2208
60 287 6977
61 2897 3350
62 1195 2133
63 1499 7585
64 6430 6122
65 4687 3986
66 1446 2172
67 8727 485
68 5766 2862
69 9574 8344
70 1447 7119
71 2090 2002
72 9504 9402
73 2615 6006
74 6296 3701
75 7815 5427
76 5005 4017
77 2401 3740
78 3673 3273
79 5349 6908
80 7633 1844
81 5849 9271
82 4448 273
83 995 8055
84 4802 9328
85 4820 9132
86 4825 4152
87 2924 6274
88 6087 7659
89 9166 2961
90 6683 1588
91 6511 5747
92 1589 3966
93 9702 9173
94 6259 687
95 7603 5560
96 718 9179
97 2619 4561
98 2205 3289
99 6580 4360
100 201 9444
DEMAND_SECTION
1 0
2 5
3 4
4 6
5 3
6 10
7 3
8 5
9 8
10 2
11 7
12 3
13 3
14 4
15 6
16 1
17 6
18 3
19 5
20 5
21 5
22 7
23 4
24 5
25 10
26 9
27 3
28 5
29 8
30 6
31 8
32 4
33 9
34 7
35 7
36 1
37 10
38 7
39 8
40 3
41 5
42 8
43 2
44 5
45 7
46 1
47 7
48 10
49 4
50 10
51 10
52 6
53 6
54 7
55 8
56 2
57 9
58 10
59 2
60 6
61 2
62 4
63 2
64 5
65 10
66 1
67 2
68 10
69 6
70 7
71 9
72 5
73 7
74 3
75 7
76 7
77 5
78 1
79 5
80 10
81 4
82 2
83 7
84 7
85 2
86 4
87 10
88 3
89 5
90 6
91 9
92 3
93 8
94 1
95 1
96 4
97 2
98 9
99 2
100 5
DEPOT_SECTION
1
-1
EOF
