NAME: tsp_n50_uniform_train_016
TYPE: TSP
DIMENSION: 50
EDGE_WEIGHT_TYPE: EUC_2D
NODE_COORD_SECTION
1 3489 8129
2 9737 4551
3 7237 1225
4 7595 6733
5 874 1109
6 2567 7497
7 2967 3013
8 3015 3584
9 3183 5459
10 2967 7412
11 6617 8799
12 2041 1218
13 4179 3297
14 1235 3784
15 3725 8802
16 1399 7334
17 2901 9529
18 9692 753
19 4964 5577
20 8702 7937
21 1236 7898
22 7990 1995
23 2172 331
24 9449 3350
25 6093 5900
26 7814 9714
27 9409 4891
28 5369 7959
29 652 430
30 1929 9896
31 3159 6742
32 2019 5036
33 2188 5873
34 9592 7267
35 2992 6985
36 9656 8569
37 6730 2139
38 5107 2805
39 6021 1984
40 3263 6234
41 2850 5482
42 2642 8388
43 120 5511
44 5522 3157
45 418 9311
46 1615 8683
47 4730 4075
48 205 7117
49 6516 8015
50 9512 3124
EOF
