NAME: tsp_n50_uniform_train_004
TYPE: TSP
DIMENSION: 50
EDGE_WEIGHT_TYPE: EUC_2D
NODE_COORD_SECTION
1 2840 7360
2 1492 8798
3 5720 9808
4 3728 979
5 2771 1134
6 427 8596
7 5442 6563
8 5907 7059
9 9862 3560
10 7294 9066
11 3940 7912
12 4301 1597
13 531 1258
14 1291 3713
15 9941 3834
16 4844 63
17 5547 7542
18 1908 1863
19 4633 9291
20 5076 1962
21 6933 1752
22 9384 7248
23 2032 4662
24 2923 2475
25 5385 8593
26 1237 1895
27 489 4317
28 2558 9314
29 1953 1781
30 1617 4251
31 6213 5489
32 4847 9405
33 3245 3471
34 1542 2872
35 2574 9084
36 9764 8688
37 9486 3429
38 1469 9508
39 4467 6655
40 413 1212
41 5579 3405
42 2619 2352
43 3943 782
44 8426 2149
45 7277 6399
46 2564 8969
47 8264 5681
48 4318 8893
49 9735 3593
50 1262 4074
EOF
