NAME: tsp_n50_uniform_train_015
TYPE: TSP
DIMENSION: 50
EDGE_WEIGHT_TYPE: EUC_2D
NODE_COORD_SECTION
1 6885 862
2 3535 8492
3 978 184
4 7517 8623
5 7374 3491
6 4028 4154
7 6182 6641
8 6223 6236
9 8671 1400
10 8220 4283
11 2272 7332
12 4800 5527
13 9094 7409
14 71 971
15 4522 5238
16 785 4435
17 6282 6721
18 1225 6055
19 2626 7747
20 5805 6736
21 9923 545
22 527 1552
23 1298 4758
24 4384 8568
25 2909 9389
26 1204 9888
27 6987 594
28 3052 9969
29 4894 3132
30 8224 5926
31 6757 6465
32 5879 2654
33 3723 2668
34 4199 8845
35 1676 3565
36 6126 6427
37 1349 7643
38 8417 234
39 7442 9655
40 8339 4540
41 9924 5061
42 8658 4390
43 7687 9156
44 5117 1772
45 4154 9392
46 7901 705
47 2769 8197
48 2129 2067
49 109 9904
50 5939 6444
EOF
