NAME: tsp_n50_uniform_train_009
TYPE: TSP
DIMENSION: 50
EDGE_WEIGHT_TYPE: EUC_2D
NODE_COORD_SECTION
1 1293 3314
2 8370 7721
3 8226 4272
4 2844 5109
5 7957 7451
6 3302 7082
7 7469 9125
8 5263 794
9 6851 9173
10 2899 1926
11 405 7281
12 1743 6271
13 3775 9062
14 6616 669
15 2404 8012
16 6770 828
17 7458 3462
18 3713 5389
19 1275 4283
20 5605 1539
21 3871 5261
22 5209 2744
23 4583 2477
24 7694 9361
25 8651 4477
26 3750 2393
27 3036 3569
28 8282 6810
29 7712 6630
30 4575 9514
31 4577 8971
32 37 6115
33 1235 6498
34 2178 3504
35 3349 8971
36 5795 7774
37 8698 7310
38 7550 4905
39 5245 9372
40 5136 4730
41 1977 8926
42 9065 4473
43 8744 168
44 1243 3155
45 4424 4127
46 2759 315
47 448 8851
48 1973 4376
49 4926 7501
50 4171 6900
EOF
