NAME: tsp_n50_uniform_train_007
TYPE: TSP
DIMENSION: 50
EDGE_WEIGHT_TYPE: EUC_2D
NODE_COORD_SECTION
1 1020 425
2 4489 4003
3 1696 629
4 8673 6874
5 6401 8409
6 6455 3709
7 3270 3661
8 346 4315
9 7233 727
10 4839 8350
11 8869 7599
12 1924 5114
13 6004 7879
14 7644 5828
15 5446 7856
16 8776 552
17 2987 4763
18 6499 4288
19 3624 6275
20 1901 1146
21 3674 8033
22 5172 6710
23 1247 9972
24 8784 5898
25 7360 9394
26 9101 8991
27 9666 6039
28 3456 8472
29 8875 4069
30 8582 3612
31 7297 5625
32 5371 8884
33 5531 3649
34 22 4491
35 3593 5237
36 298 1076
37 282 4390
38 1324 2961
39 198 6996
40 4020 2851
41 8747 1839
42 2421 8161
43 4110 3574
44 4600 1400
45 3767 8156
46 2621 284
47 2755 4177
48 6406 3891
49 721 2005
50 2884 459
EOF
