NAME: tsp_n50_uniform_train_008
TYPE: TSP
DIMENSION: 50
EDGE_WEIGHT_TYPE: EUC_2D
NODE_COORD_SECTION
1 7925 1452
2 4745 3907
3 8648 5999
4 5335 1643
5 5344 1591
6 5975 8777
7 4680 263
8 9887 6429
9 2223 9569
10 6538 5299
11 8330 2807
12 3184 4060
13 1947 4719
14 2691 3175
15 6613 8444
16 8247 2454
17 292 8807
18 6497 6097
19 2730 2337
20 5314 2294
21 8551 8088
22 8225 9007
23 7314 3762
24 6919 2958
25 4077 1372
26 9589 3009
27 2729 2246
28 8412 4168
29 5421 6618
30 2460 9319
31 3785 9660
32 524 1028
33 9454 5478
34 8250 9194
35 496 6781
36 2734 875
37 1317 3007
38 8152 9672
39 2144 8676
40 852 6657
41 2594 5346
42 3588 2754
43 8877 1143
44 916 3590
45 5188 3672
46 2208 3779
47 8354 1837
48 9750 4655
49 2092 9297
50 4093 1706
EOF
