NAME: tsp_n50_uniform_train_000
TYPE: TSP
DIMENSION: 50
EDGE_WEIGHT_TYPE: EUC_2D
NODE_COORD_SECTION
1 9132 9249
2 7835 1723
3 3781 6897
4 2207 3493
5 5919 9675
6 7564 4939
7 3273 2833
8 6519 3181
9 2084 1016
10 5424 3805
11 4954 9533
12 892 8220
13 9755 6951
14 7867 6105
15 2991 4532
16 2196 4063
17 6937 7303
18 8400 5195
19 9236 6721
20 7477 2252
21 2676 6924
22 9937 2579
23 9537 4150
24 1709 5433
25 5998 3905
26 347 365
27 8675 728
28 1799 4649
29 9291 5073
30 9656 5366
31 1833 7933
32 7015 9255
33 406 410
34 7926 5564
35 7225 4812
36 7228 604
37 8448 1982
38 4679 3072
39 4989 8015
40 7183 1484
41 2440 2127
42 5165 8592
43 788 305
44 1673 6168
45 812 4701
46 7444 484
47 2611 3232
48 6911 8368
49 9963 3475
50 8725 4169
EOF
