NAME: tsp_n50_uniform_train_006
TYPE: TSP
DIMENSION: 50
EDGE_WEIGHT_TYPE: EUC_2D
NODE_COORD_SECTION
1 8864 3015
2 8006 4888
3 9628 3448
4 3864 3615
5 9583 6796
6 162 7923
7 9089 2209
8 6847 3602
9 3443 4623
10 4343 3577
11 4260 3442
12 8689 2046
13 8167 5497
14 4276 1210
15 2900 2269
16 4509 5555
17 94 771
18 2747 2756
19 5827 8734
20 559 2076
21 8334 7700
22 9997 2641
23 5537 899
24 821 8812
25 4534 6014
26 7925 1945
27 3483 8630
28 9160 6632
29 8867 7732
30 6343 5971
31 3104 9429
32 2242 8797
33 4232 3027
34 7613 1855
35 7944 7458
36 7619 599
37 4268 3203
38 9552 1931
39 1183 6289
40 6583 6150
41 5034 5768
42 2000 4702
43 8259 7491
44 9952 9907
45 7338 1842
46 7138 5213
47 7877 7767
48 7940 5254
49 325 3994
50 5133 7690
EOF
