NAME: tsp_n50_uniform_train_011
TYPE: TSP
DIMENSION: 50
EDGE_WEIGHT_TYPE: EUC_2D
NODE_COORD_SECTION
1 991 9047
2 3364 8833
3 1298 6593
4 9038 4098
5 4361 7222
6 581 707
7 2220 2422
8 8663 9087
9 32 8948
10 6460 7073
11 4258 2355
12 305 5879
13 2835 8321
14 7895 6310
15 5360 8076
16 4862 6469
17 5577 2595
18 4406 6785
19 8949 6350
20 4036 7092
21 617 8643
22 596 8950
23 3508 2549
24 7565 8448
25 4240 2693
26 7469 374
27 8375 4442
28 1542 2848
29 9270 5636
30 731 4415
31 7869 1253
32 7752 6077
33 1527 2405
34 5034 8557
35 7673 692
36 7672 1685
37 5454 985
38 8853 5573
39 2771 9653
40 4521 4573
41 1296 7847
42 7320 9580
43 5641 9955
44 8641 8496
45 4912 4421
46 4652 2716
47 5236 8887
48 3675 8055
49 5112 4217
50 6060 978
EOF
