NAME: tsp_n50_uniform_train_018
TYPE: TSP
DIMENSION: 50
EDGE_WEIGHT_TYPE: EUC_2D
NODE_COORD_SECTION
1 5972 4617
2 8648 7049
3 2861 4814
4 5911 9629
5 4832 3720
6 6299 1036
7 4547 3041
8 7904 2564
9 9668 6660
10 6160 3743
11 5552 3493
12 3492 9759
13 1308 8677
14 7656 4109
15 2004 3542
16 4194 924
17 4145 8491
18 3112 1847
19 1021 6335
20 5515 8544
21 6398 2384
22 6799 9666
23 3138 7702
24 8976 2038
25 1457 8342
26 6376 8455
27 7530 3597
28 6632 5211
29 7257 8216
30 3027 3252
31 2889 5359
32 1253 3502
33 8616 831
34 4805 7737
35 8920 7979
36 4024 9219
37 7675 3282
38 9263 7006
39 9462 6614
40 5492 8630
41 7766 3043
42 6037 7920
43 1571 2761
44 7701 4094
45 9096 3042
46 4067 4802
47 4861 1578
48 5646 3608
49 3545 5538
50 8207 8902
EOF
