NAME: tsp_n50_uniform_train_019
TYPE: TSP
DIMENSION: 50
EDGE_WEIGHT_TYPE: EUC_2D
NODE_COORD_SECTION
1 1432 4522
2 1170 4488
3 5869 1547
4 7678 6865
5 3032 2316
6 9806 5044
7 5605 5424
8 3487 2094
9 1915 1231
10 7389 8324
11 3920 206
12 1802 1821
13 5836 6248
14 3228 903
15 1507 1296
16 5853 3576
17 85 3389
18 4715 5758
19 2460 3261
20 3415 7706
21 5935 2443
22 7745 4669
23 8745 9842
24 867 4257
25 7150 289
26 9930 4596
27 5504 1521
28 2397 6502
29 2357 449
30 4564 691
31 8802 6080
32 6258 1186
33 9444 4781
34 6785 8873
35 3945 3352
36 5898 6023
37 1124 743
38 5884 4023
39 3188 6332
40 741 303
41 4593 7420
42 7864 5104
43 2615 884
44 5388 7706
45 3997 1983
46 9681 9086
47 6090 7541
48 8719 5285
49 9716 7695
50 8431 2365
EOF
