NAME: tsp_n50_uniform_train_013
TYPE: TSP
DIMENSION: 50
EDGE_WEIGHT_TYPE: EUC_2D
NODE_COORD_SECTION
1 5664 7051
2 5236 5851
3 5636 6141
4 2070 8726
5 3906 1406
6 5028 4229
7 5305 7399
8 8833 5565
9 939 7767
10 8595 6801
11 1480 9900
12 8612 1890
13 8844 7585
14 9568 7472
15 725 2996
16 6733 6737
17 2023 7121
18 6162 1561
19 6399 9497
20 7858 8033
21 5185 4788
22 9049 4972
23 2344 1529
24 9540 7501
25 5445 7396
26 4949 6378
27 3495 2411
28 2536 2419
29 1099 2754
30 95 5290
31 5121 6432
32 918 8204
33 8575 2416
34 4368 5139
35 9960 8691
36 4914 7076
37 3788 4927
38 5757 6301
39 4739 4112
40 7358 7569
41 7932 253
42 8816 532
43 3418 2065
44 9935 3246
45 9212 3958
46 9217 3228
47 9472 5074
48 9552 393
49 4337 1276
50 5049 6751
EOF
