NAME: tsp_n50_uniform_train_010
TYPE: TSP
DIMENSION: 50
EDGE_WEIGHT_TYPE: EUC_2D
NODE_COORD_SECTION
1 7302 3893
2 9428 9598
3 929 8724
4 8474 6277
5 5394 7590
6 9078 2926
7 6397 9928
8 36 8238
9 964 1506
10 7395 7150
11 9838 7199
12 7039 3482
13 1865 2145
14 4951 7688
15 8549 974
16 1314 6213
17 4792 8848
18 4363 9461
19 7910 1506
20 9234 3798
21 3172 8845
22 9298 9506
23 8577 4187
24 1924 7115
25 523 6775
26 783 2711
27 1720 8972
28 6320 4316
29 8111 9741
30 7708 9113
31 6379 3740
32 5179 8619
33 2652 5755
34 6360 7708
35 7088 8755
36 6465 9506
37 9794 1071
38 4116 1147
39 3634 1406
40 991 3123
41 5626 2583
42 2544 4927
43 2635 5823
44 4131 9201
45 8044 2404
46 2208 6003
47 834 2050
48 332 2950
49 7811 6501
50 9820 1501
EOF
