NAME: tsp_n50_uniform_train_014
TYPE: TSP
DIMENSION: 50
EDGE_WEIGHT_TYPE: EUC_2D
NODE_COORD_SECTION
1 578 7838
2 7640 5722
3 4039 325
4 2081 8598
5 4445 9699
6 6844 4525
7 7248 2137
8 4981 2427
9 9451 8956
10 751 1490
11 1158 1841
12 9413 8020
13 7830 2392
14 8610 9807
15 9493 9971
16 6687 4897
17 9688 7922
18 4533 7529
19 5715 9277
20 439 8155
21 1551 6949
22 1115 5949
23 423 986
24 6711 626
25 7776 6173
26 3989 2074
27 8430 3286
28 4047 2821
29 1118 3717
30 7638 7293
31 4890 1811
32 6949 7795
33 2017 6489
34 7365 146
35 5101 5231
36 2236 2228
37 4789 9489
38 2906 2437
39 2911 4880
40 7603 9374
41 7081 2919
42 7021 7245
43 5792 9254
44 797 5631
45 3995 1610
46 8378 3927
47 3437 2710
48 8014 9240
49 5263 3455
50 70 5632
EOF
