NAME: tsp_n50_uniform_train_012
TYPE: TSP
DIMENSION: 50
EDGE_WEIGHT_TYPE: EUC_2D
NODE_COORD_SECTION
1 4987 9780
2 4202 2808
3 7832 687
4 1324 882
5 7839 8515
6 5728 7029
7 4443 3194
8 9068 6832
9 6348 6118
10 9583 35
11 3718 7652
12 5119 5234
13 4060 5997
14 1794 7936
15 2772 9494
16 9161 2923
17 4671 8332
18 7819 6113
19 7116 1776
20 2527 6914
21 6490 6427
22 306 7518
23 9381 7972
24 6997 3335
25 9671 6499
26 6403 5824
27 7704 1341
28 2230 4924
29 6782 8984
30 3407 3991
31 3421 472
32 1843 719
33 2977 1597
34 3622 5413
35 5398 1188
36 1467 7915
37 1395 9980
38 5049 3719
39 5545 7638
40 1753 9932
41 8750 4406
42 8795 7648
43 9669 4984
44 8072 4794
45 4829 7785
46 3193 1843
47 7970 484
48 5750 2448
49 4110 7558
50 1242 9291
EOF
