NAME: tsp_n50_uniform_train_005
TYPE: TSP
DIMENSION: 50
EDGE_WEIGHT_TYPE: EUC_2D
NODE_COORD_SECTION
1 4296 2120
2 8543 1157
3 9606 6139
4 9939 674
5 2614 7911
6 7650 8188
7 7731 6141
8 8839 5960
9 6937 1241
10 9454 540
11 3514 7151
12 2637 733
13 6627 2604
14 9436 6685
15 4450 4581
16 5861 1441
17 5667 7864
18 3825 4532
19 5155 714
20 5189 3413
21 677 4951
22 9993 4802
23 6286 2699
24 3154 5721
25 5551 3460
26 5844 5961
27 4441 5816
28 4702 2913
29 4388 5121
30 4317 3459
31 4357 9773
32 8107 5637
33 3118 6469
34 2245 952
35 1645 3367
36 7044 6134
37 6067 5569
38 1268 7654
39 2498 4387
40 8150 607
41 374 3176
42 9190 6765
43 250 3046
44 3298 5450
45 6170 1167
46 7425 3238
47 161 6598
48 4355 2493
49 6555 3617
50 3926 2011
EOF
