NAME: tsp_n50_uniform_train_002
TYPE: TSP
DIMENSION: 50
EDGE_WEIGHT_TYPE: EUC_2D
NODE_COORD_SECTION
1 4957 9612
2 9369 9198
3 3407 5100
4 782 5715
5 677 3457
6 892 7604
7 8534 3994
8 810 2278
9 3861 2225
10 5597 9029
11 4342 6531
12 4751 3139
13 908 9686
14 4319 363
15 1697 120
16 5477 4823
17 1634 6419
18 6116 2241
19 3253 8147
20 4753 7291
21 9417 3157
22 8747 6099
23 8010 9467
24 661 5142
25 6281 7693
26 6428 9728
27 7597 3781
28 9517 2386
29 5991 3466
30 9268 8131
31 9713 8393
32 3146 1268
33 2812 1142
34 6790 830
35 1079 2010
36 1546 673
37 3483 5615
38 4614 4984
39 3199 2589
40 4931 2055
41 5546 5800
42 6196 1964
43 9373 9928
44 3158 8054
45 2762 8054
46 5680 3442
47 5619 881
48 2382 8474
49 9710 6654
50 5292 8415
EOF
