NAME: tsp_n50_uniform_train_001
TYPE: TSP
DIMENSION: 50
EDGE_WEIGHT_TYPE: EUC_2D
NODE_COORD_SECTION
1 8105 8781
2 4142 2306
3 6975 5899
4 5057 3646
5 1511 678
6 4433 6735
7 9577 2066
8 7372 7374
9 2821 7944
10 6763 5933
11 9860 5396
12 727 6359
13 8150 5539
14 6309 7182
15 346 8693
16 7460 946
17 8249 6622
18 5592 9924
19 1724 8949
20 5790 3206
21 5602 830
22 1051 2239
23 5382 174
24 6182 4294
25 2161 2326
26 7317 9683
27 6769 4167
28 1943 2750
29 3862 8044
30 1608 4490
31 6605 2960
32 2329 2883
33 9495 1654
34 7295 3349
35 6895 6399
36 3801 3875
37 3742 7560
38 5101 8132
39 8745 1964
40 2443 8869
41 926 3958
42 5023 5311
43 583 7551
44 8476 9503
45 2167 4074
46 6162 6334
47 8039 6008
48 2035 641
49 7431 9886
50 2122 1131
EOF
