NAME: tsp_n50_uniform_train_003
TYPE: TSP
DIMENSION: 50
EDGE_WEIGHT_TYPE: EUC_2D
NODE_COORD_SECTION
1 8104 136
2 9480 9453
3 1565 3831
4 3540 428
5 449 8093
6 4800 7437
7 1734 7986
8 9335 7011
9 4849 8089
10 3829 7880
11 2619 5521
12 7375 3111
13 1673 7579
14 9496 5665
15 7938 7730
16 6371 8874
17 237 8157
18 1631 117
19 4816 7188
20 3280 7844
21 1654 6568
22 756 5903
23 5596 2840
24 5065 781
25 8831 5436
26 2516 7609
27 6921 8660
28 8556 6888
29 1907 4853
30 1585 8103
31 708 9145
32 9301 5489
33 2452 2465
34 4799 4636
35 5539 5438
36 6776 1908
37 2643 3012
38 950 2033
39 992 1801
40 5259 6637
41 7507 4061
42 1792 2230
43 8915 8260
44 9614 545
45 2287 3453
46 6437 2615
47 3457 6624
48 4349 6696
49 9649 7904
50 5774 7125
EOF
