NAME: tsp_n50_uniform_train_017
TYPE: TSP
DIMENSION: 50
EDGE_WEIGHT_TYPE: EUC_2D
NODE_COORD_SECTION
1 6213 8368
2 6722 6085
3 3506 4804
4 6159 3314
5 2700 85
6 1599 6761
7 1796 9734
8 5317 661
9 610 7894
10 5073 7873
11 1164 6503
12 8612 7165
13 7398 5931
14 2344 7427
15 8662 7736
16 4459 5133
17 5752 9521
18 5836 9118
19 1825 8413
20 8837 4043
21 3949 4143
22 4033 2239
23 2794 7822
24 2718 837
25 9422 3149
26 7374 5802
27 8503 7642
28 544 4802
29 5408 8573
30 6915 3082
31 9521 9733
32 2556 5619
33 7016 7555
34 5435 667
35 1646 7457
36 5401 7032
37 4601 3498
38 3698 6595
39 2195 1924
40 1291 4782
41 6099 5143
42 6355 4169
43 638 2215
44 4492 387
45 9913 5546
46 9736 3552
47 8809 8577
48 6249 2683
49 4154 105
50 9828 6069
EOF
