NAME: ovrptw_uniform_n50_medium_train_000-k8
TYPE: CVRP
DIMENSION: 50
EDGE_WEIGHT_TYPE: EUC_2D
CAPACITY: 44
NODE_COORD_SECTION
1 849 5775
2 8353 1292
3 6836 7721
4 9609 3856
5 7827 9209
6 9889 5948
7 674 1115
8 6282 9724
9 3314 8255
10 517 1143
11 3684 7879
12 7032 2546
13 8167 9289
14 9635 3959
15 3878 5273
16 8042 1478
17 4078 4996
18 8735 9731
19 8601 4666
20 5073 6637
21 3284 4894
22 5784 9950
23 6076 8462
24 1749 4993
25 7058 8364
26 4663 9481
27 3901 6974
28 3603 1407
29 4387 4869
30 5581 3183
31 8931 1749
32 8328 8552
33 4298 489
34 9032 1743
35 4539 7852
36 264 9427
37 80 2946
38 448 5990
39 8443 2831
40 1597 361
41 9476 5942
42 8654 7026
43 4406 9098
44 5442 6460
45 2580 9539
46 3310 3258
47 7584 9751
48 4036 3472
49 6553 9111
50 6409 4820
DEMAND_SECTION
1 0
2 9
3 6
4 4
5 7
6 1
7 6
8 9
9 3
10 3
11 7
12 1
13 8
14 9
15 3
16 1
17 1
18 5
19 3
20 1
21 3
22 3
23 5
24 6
25 10
26 7
27 9
28 5
29 7
30 2
31 7
32 1
33 10
34 7
35 8
36 6
37 2
38 10
39 3
40 3
41 7
42 9
43 8
44 10
45 9
46 6
47 2
48 1
49 8
50 1
DEPOT_SECTION
1
-1
EOF
