NAME: ovrptw_uniform_n50_medium_train_011-k8
TYPE: CVRP
DIMENSION: 50
EDGE_WEIGHT_TYPE: EUC_2D
CAPACITY: 45
NODE_COORD_SECTION
1 3053 6906
2 2787 9834
3 8262 9002
4 2618 1062
5 1094 670
6 6416 8388
7 3587 3102
8 8046 9817
9 331 7179
10 1064 4320
11 8781 7028
12 389 1027
13 2626 7570
14 3445 5626
15 2166 2737
16 5907 2436
17 3626 1845
18 160 612
19 7549 3601
20 7906 7237
21 3969 6965
22 1072 5831
23 6801 6828
24 2869 3056
25 4520 7485
26 3976 6644
27 659 3224
28 783 105
29 3814 8427
30 7000 8068
31 5813 9064
32 8763 5591
33 1499 3167
34 2023 9564
35 436 7080
36 1340 5776
37 2961 8221
38 2670 2626
39 9079 8603
40 1708 8109
41 5636 1721
42 909 5778
43 7950 1018
44 610 7468
45 6927 8114
46 7415 3386
47 7951 6731
48 1242 767
49 8721 1151
50 1000 1557
DEMAND_SECTION
1 0
2 3
3 9
4 8
5 6
6 5
7 2
8 1
9 4
10 8
11 4
12 4
13 7
14 10
15 7
16 1
17 4
18 3
19 8
20 5
21 4
22 3
23 4
24 10
25 5
26 9
27 6
28 7
29 4
30 9
31 6
32 10
33 8
34 4
35 8
36 6
37 8
38 1
39 3
40 10
41 2
42 6
43 7
44 2
45 6
46 2
47 3
48 10
49 6
50 2
DEPOT_SECTION
1
-1
EOF
