NAME: ovrptw_uniform_n50_medium_train_005-k8
TYPE: CVRP
DIMENSION: 50
EDGE_WEIGHT_TYPE: EUC_2D
CAPACITY: 45
NODE_COORD_SECTION
1 2287 6586
2 5635 7790
3 1888 244
4 9885 6643
5 9680 9667
6 47 9547
7 5647 3752
8 3298 7652
9 2528 12
10 265 5416
11 1112 800
12 7851 2058
13 9819 4446
14 1483 8786
15 8016 9352
16 3372 2848
17 1922 6212
18 3037 3623
19 1524 5998
20 9555 3393
21 734 4326
22 4215 2335
23 3606 1275
24 1626 5496
25 2416 1637
26 7190 3193
27 4609 6734
28 8063 878
29 1020 8444
30 9429 3329
31 2274 3005
32 1158 235
33 3224 175
34 7489 6994
35 8045 9921
36 7331 8842
37 5129 676
38 8478 5797
39 3626 3022
40 9870 5908
41 2311 8280
42 8249 5406
43 6188 3461
44 9437 1410
45 4720 2826
46 8773 3456
47 2893 5764
48 1945 2627
49 9434 3333
50 1703 6889
DEMAND_SECTION
1 0
2 6
3 1
4 10
5 4
6 9
7 6
8 5
9 1
10 9
11 1
12 4
13 6
14 5
15 4
16 10
17 9
18 2
19 8
20 8
21 10
22 9
23 7
24 4
25 8
26 2
27 10
28 2
29 6
30 4
31 4
32 5
33 3
34 6
35 7
36 6
37 10
38 10
39 1
40 3
41 1
42 4
43 4
44 6
45 5
46 5
47 5
48 2
49 5
50 8
DEPOT_SECTION
1
-1
EOF
