NAME: ovrptw_uniform_n50_medium_train_009-k8
TYPE: CVRP
DIMENSION: 50
EDGE_WEIGHT_TYPE: EUC_2D
CAPACITY: 43
NODE_COORD_SECTION
1 7929 1703
2 7220 3787
3 1606 8219
4 551 7482
5 2886 3406
6 5180 708
7 3495 350
8 5780 2198
9 4446 8553
10 6130 5386
11 2544 2592
12 3526 1115
13 6049 2075
14 5379 4392
15 976 9894
16 2784 4593
17 9743 3788
18 962 7994
19 2715 4408
20 1999 3138
21 4323 5423
22 924 7668
23 4454 2964
24 6867 8729
25 7746 9088
26 6353 2998
27 4174 2510
28 2039 6406
29 4567 7908
30 6437 9581
31 1277 9918
32 9007 1900
33 1615 8214
34 6087 7421
35 3916 9277
36 3221 2067
37 4569 9208
38 5185 5971
39 9195 1459
40 6424 7951
41 6004 473
42 6369 5269
43 4585 3572
44 2429 2112
45 5139 5690
46 731 6806
47 6686 455
48 1624 8927
49 6593 724
50 7273 2643
DEMAND_SECTION
1 0
2 2
3 8
4 6
5 3
6 10
7 2
8 4
9 3
10 8
11 5
12 3
13 7
14 4
15 4
16 3
17 4
18 9
19 6
20 6
21 7
22 4
23 7
24 2
25 2
26 2
27 10
28 1
29 9
30 7
31 9
32 8
33 3
34 7
35 2
36 5
37 10
38 7
39 2
40 9
41 2
42 1
43 4
44 5
45 1
46 8
47 5
48 4
49 5
50 10
DEPOT_SECTION
1
-1
EOF
