NAME: vrptw_uniform_n50_medium_train_014-k8
TYPE: CVRP
DIMENSION: 50
EDGE_WEIGHT_TYPE: EUC_2D
CAPACITY: 48
NODE_COORD_SECTION
1 3957 4219
2 1563 6207
3 3258 3683
4 8277 7185
5 9444 786
6 7385 5132
7 3520 3201
8 4811 4380
9 9696 2792
10 7822 7577
11 1071 7285
12 6650 6053
13 3677 7303
14 8693 948
15 1175 2122
16 7811 5429
17 9611 5762
18 9325 5106
19 5653 4198
20 81 7818
21 8587 1424
22 6989 9192
23 7394 8359
24 8714 4842
25 3742 1633
26 3086 3195
27 436 3448
28 5709 7909
29 6549 7019
30 8656 3879
31 9969 765
32 9570 8643
33 5932 1949
34 7284 8785
35 1658 8777
36 1996 5886
37 2233 4395
38 7630 3772
39 5653 5399
40 8159 6413
41 3557 4384
42 5682 6530
43 5884 2116
44 9053 1558
45 9318 9864
46 7949 5480
47 2538 1717
48 1173 9915
49 6485 6762
50 8473 1788
DEMAND_SECTION
1 0
2 1
3 3
4 1
5 8
6 5
7 5
8 4
9 2
10 3
11 10
12 1
13 10
14 9
15 10
16 3
17 5
18 1
19 3
20 8
21 10
22 8
23 3
24 5
25 6
26 10
27 7
28 2
29 10
30 10
31 7
32 7
33 1
34 6
35 9
36 4
37 7
38 9
39 7
40 3
41 3
42 6
43 7
44 7
45 10
46 3
47 6
48 9
49 2
50 9
DEPOT_SECTION
1
-1
EOF
