NAME: vrptw_uniform_n50_medium_train_001-k8
TYPE: CVRP
DIMENSION: 50
EDGE_WEIGHT_TYPE: EUC_2D
CAPACITY: 42
NODE_COORD_SECTION
1 9255 9554
2 7183 8723
3 279 7560
4 9998 4894
5 7378 5130
6 6572 655
7 2737 5919
8 7725 1979
9 3821 3443
10 4641 1900
11 9696 5843
12 3577 7329
13 2778 187
14 7558 325
15 5777 2876
16 682 7278
17 7831 7991
18 5674 7775
19 6638 8266
20 9142 2263
21 4502 3615
22 5323 5152
23 7004 3377
24 6655 6317
25 7841 6140
26 7756 9495
27 177 9335
28 5631 5103
29 2139 318
30 2863 8574
31 8629 4660
32 4635 8891
33 160 4956
34 4580 8598
35 6151 5392
36 2627 9569
37 2465 2944
38 8696 4572
39 7618 5408
40 3271 475
41 2880 4004
42 4001 4122
43 7665 2484
44 1222 7678
45 9974 4842
46 8170 1198
47 4524 6914
48 9139 7253
49 6376 8664
50 7222 7790
DEMAND_SECTION
1 0
2 1
3 1
4 4
5 6
6 1
7 3
8 6
9 8
10 4
11 3
12 5
13 2
14 4
15 10
16 8
17 3
18 5
19 9
20 2
21 7
22 9
23 10
24 6
25 7
26 4
27 9
28 9
29 6
30 2
31 7
32 7
33 4
34 3
35 7
36 1
37 10
38 6
39 3
40 3
41 5
42 4
43 3
44 7
45 6
46 1
47 2
48 5
49 6
50 7
DEPOT_SECTION
1
-1
EOF
