NAME: vrptw_uniform_n50_medium_train_015-k8
TYPE: CVRP
DIMENSION: 50
EDGE_WEIGHT_TYPE: EUC_2D
CAPACITY: 46
NODE_COORD_SECTION
1 5865 73
2 8332 3112
3 9472 4634
4 7951 4299
5 5832 5863
6 9388 5123
7 1107 6497
8 8496 1505
9 7386 9847
10 5048 7813
11 8621 3516
12 4055 3881
13 6568 1392
14 5006 2450
15 8738 1932
16 5558 4455
17 2263 1352
18 6483 8322
19 4169 1962
20 7477 821
21 161 5428
22 7294 1798
23 6531 3554
24 4863 9649
25 3177 6882
26 6798 3666
27 555 9757
28 8527 7380
29 4096 9495
30 2473 6393
31 1360 2899
32 1603 2352
33 4571 4745
34 1699 8619
35 6925 7687
36 6449 8173
37 830 866
38 1137 1493
39 2917 893
40 3764 8560
41 6151 8589
42 4987 366
43 3879 6616
44 7137 373
45 6695 4256
46 6906 4949
47 7578 408
48 1227 3949
49 9257 8789
50 3558 8659
DEMAND_SECTION
1 0
2 8
3 2
4 1
5 8
6 6
7 10
8 3
9 4
10 3
11 6
12 6
13 6
14 8
15 4
16 8
17 8
18 3
19 1
20 5
21 7
22 5
23 8
24 8
25 3
26 7
27 2
28 9
29 3
30 6
31 4
32 10
33 9
34 5
35 10
36 5
37 7
38 1
39 1
40 2
41 10
42 5
43 1
44 9
45 2
46 8
47 6
48 8
49 1
50 10
DEPOT_SECTION
1
-1
EOF
