NAME: vrptw_uniform_n50_medium_train_003-k8
TYPE: CVRP
DIMENSION: 50
EDGE_WEIGHT_TYPE: EUC_2D
CAPACITY: 50
NODE_COORD_SECTION
1 3494 8244
2 2773 1043
3 4436 8973
4 4706 8959
5 2318 8712
6 3396 2168
7 3089 217
8 2840 7680
9 1848 4277
10 4420 5227
11 135 1843
12 2763 9870
13 4388 3154
14 6782 5873
15 5652 4742
16 7789 6048
17 1592 186
18 9373 7208
19 6985 1863
20 9132 5413
21 4586 502
22 1701 9837
23 590 3820
24 6066 647
25 3924 3127
26 9153 6222
27 3545 7278
28 9061 9541
29 8408 9549
30 1884 9507
31 9710 2631
32 7107 4772
33 5460 9125
34 2986 4651
35 4779 295
36 4282 9163
37 8234 4960
38 4980 3720
39 3190 3251
40 776 2204
41 4983 2489
42 881 5515
43 3210 3531
44 6877 4394
45 9401 105
46 9414 3559
47 8310 7588
48 4868 3466
49 1505 8359
50 816 6666
DEMAND_SECTION
1 0
2 7
3 8
4 6
5 5
6 9
7 3
8 1
9 3
10 5
11 8
12 8
13 3
14 5
15 7
16 1
17 9
18 8
19 9
20 8
21 8
22 3
23 2
24 8
25 4
26 10
27 1
28 3
29 3
30 9
31 5
32 2
33 10
34 10
35 6
36 1
37 9
38 9
39 8
40 9
41 6
42 4
43 9
44 4
45 10
46 3
47 3
48 10
49 4
50 10
DEPOT_SECTION
1
-1
EOF
