NAME: vrptw_uniform_n50_medium_train_017-k8
TYPE: CVRP
DIMENSION: 50
EDGE_WEIGHT_TYPE: EUC_2D
CAPACITY: 43
NODE_COORD_SECTION
1 9914 8986
2 1561 7348
3 5654 570
4 9226 45
5 2020 5952
6 737 1653
7 9996 2422
8 683 7509
9 8581 3441
10 4111 6458
11 8453 8728
12 8822 6801
13 4544 1760
14 472 6169
15 9667 2972
16 6346 9224
17 3659 9863
18 7882 9989
19 5683 4388
20 7993 6931
21 7794 8372
22 6600 2226
23 3889 5886
24 2807 2663
25 7746 4585
26 1742 2556
27 8498 8122
28 8194 7698
29 889 373
30 8565 7257
31 1636 1272
32 3966 9031
33 5673 6915
34 3545 1457
35 9463 9252
36 3385 3225
37 4640 9915
38 6566 3315
39 4012 1062
40 3565 2737
41 7983 7974
42 7703 4927
43 5404 4261
44 5561 9681
45 2797 1608
46 3457 7933
47 5913 1157
48 4613 1452
49 4795 4671
50 9241 809
DEMAND_SECTION
1 0
2 8
3 9
4 8
5 5
6 1
7 2
8 7
9 5
10 9
11 3
12 10
13 2
14 1
15 2
16 4
17 9
18 7
19 1
20 3
21 6
22 1
23 7
24 4
25 6
26 9
27 7
28 10
29 4
30 5
31 7
32 7
33 3
34 4
35 1
36 10
37 8
38 5
39 5
40 10
41 5
42 1
43 8
44 2
45 1
46 7
47 4
48 3
49 8
50 2
DEPOT_SECTION
1
-1
EOF
