NAME: tsp_uniform_n50_a_train_014
TYPE: TSP
DIMENSION: 50
EDGE_WEIGHT_TYPE: EUC_2D
NODE_COORD_SECTION
1 5246 34
2 150 3678
3 8185 5659
4 8606 3037
5 4293 4784
6 5396 6898
7 6755 9935
8 8198 2556
9 8347 769
10 1940 8921
11 9671 2918
12 5468 6340
13 578 1284
14 5218 2946
15 5873 3411
16 747 5449
17 9185 7942
18 4076 4099
19 6934 1925
20 2284 896
21 4109 5603
22 3325 4923
23 8953 7864
24 2017 7487
25 4820 8397
26 499 8401
27 3736 5491
28 5753 6588
29 6499 7119
30 4163 4872
31 3298 6754
32 8557 4889
33 8969 2539
34 2914 3921
35 6359 3411
36 9047 2754
37 9339 970
38 1992 7295
39 1799 3630
40 4182 7743
41 3078 136
42 1524 3071
43 8643 1248
44 8365 8736
45 5797 3380
46 68 5092
47 756 5493
48 3210 4541
49 6008 6752
50 3491 7553
EOF
