NAME: tsp_uniform_n50_a_train_004
TYPE: TSP
DIMENSION: 50
EDGE_WEIGHT_TYPE: EUC_2D
NODE_COORD_SECTION
1 8622 2472
2 4630 5434
3 4231 74
4 6260 1286
5 277 9817
6 3349 6160
7 3012 9031
8 8806 2354
9 9025 6395
10 6562 8515
11 1334 520
12 5722 6583
13 3868 5144
14 9191 4752
15 5550 8707
16 6635 1455
17 9996 9701
18 6662 7760
19 5821 9342
20 871 8688
21 8375 7704
22 3860 1686
23 791 9796
24 6959 7064
25 3495 1362
26 5785 1552
27 6460 9757
28 3814 4452
29 1918 1125
30 8217 9759
31 8201 3774
32 8190 3612
33 4583 2498
34 1930 4165
35 1439 8882
36 5599 9147
37 743 1472
38 408 5054
39 2268 1454
40 5328 8927
41 1566 5743
42 6239 7036
43 2219 8938
44 4033 2311
45 1139 834
46 2865 5532
47 4234 3689
48 7777 9626
49 9519 527
50 2172 7380
EOF
