NAME: tsp_uniform_n50_a_train_012
TYPE: TSP
DIMENSION: 50
EDGE_WEIGHT_TYPE: EUC_2D
NODE_COORD_SECTION
1 4049 1980
2 2341 3231
3 6731 2909
4 2263 4773
5 9544 4702
6 9852 7546
7 9723 9015
8 1585 1121
9 7809 6070
10 4135 9692
11 9925 3225
12 6255 6729
13 4204 6341
14 4220 2310
15 45 9473
16 8239 9723
17 8179 681
18 4220 5153
19 1370 9979
20 1845 1004
21 3968 6957
22 5829 1943
23 8028 9600
24 2386 1791
25 3503 7617
26 7098 9492
27 6808 88
28 4030 2496
29 912 7843
30 4793 7699
31 1140 83
32 7391 4143
33 7170 2802
34 7682 7007
35 2593 2032
36 7998 9876
37 7559 3251
38 6819 9622
39 8995 1581
40 3211 1102
41 3829 581
42 2891 1109
43 1430 8165
44 8655 4831
45 2469 5989
46 2593 8594
47 7984 5456
48 6264 1528
49 4900 4004
50 9300 6847
EOF
