NAME: tsp_uniform_n50_a_train_011
TYPE: TSP
DIMENSION: 50
EDGE_WEIGHT_TYPE: EUC_2D
NODE_COORD_SECTION
1 3933 9048
2 3763 940
3 5341 1541
4 3627 5933
5 6215 1769
6 6313 657
7 9974 4823
8 3032 7124
9 265 8421
10 6187 96
11 5018 2178
12 5275 7791
13 117 657
14 3348 190
15 3724 6399
16 2280 1494
17 4235 529
18 7857 5350
19 5567 6346
20 134 1015
21 7873 5947
22 6005 7429
23 1878 5608
24 8444 2602
25 2543 345
26 2248 9976
27 6069 1424
28 7402 8601
29 2048 4176
30 6426 5045
31 1511 2986
32 9064 5351
33 8515 8983
34 6027 3947
35 3951 4201
36 2552 3144
37 6882 2893
38 5846 6205
39 1160 482
40 6199 7497
41 5465 2605
42 269 9039
43 7717 7852
44 797 7785
45 1021 3548
46 9243 6029
47 9897 556
48 7468 4142
49 3518 3543
50 3066 3971
EOF
