NAME: tsp_uniform_n50_a_train_013
TYPE: TSP
DIMENSION: 50
EDGE_WEIGHT_TYPE: EUC_2D
NODE_COORD_SECTION
1 7688 2083
2 9618 2184
3 3478 2253
4 5606 5713
5 2871 138
6 1871 173
7 7662 4416
8 3101 5396
9 8109 5584
10 5077 3642
11 2593 4947
12 7690 5182
13 9182 2632
14 7443 6607
15 7097 1223
16 8521 735
17 8605 8993
18 4019 4260
19 5321 8377
20 7398 7978
21 3684 1615
22 9389 4147
23 7353 2692
24 9982 2196
25 732 5966
26 5514 9820
27 4430 7387
28 3482 4250
29 2301 3678
30 9360 8775
31 5473 4980
32 1946 3014
33 5363 5071
34 7929 160
35 9230 2246
36 3350 8563
37 3984 4948
38 6947 1945
39 8369 8797
40 8830 1452
41 6740 8703
42 3529 3437
43 553 8257
44 2241 9118
45 5544 7972
46 1218 8443
47 9710 46
48 5837 4606
49 7909 9361
50 6464 9207
EOF
