NAME: tsp_uniform_n50_a_train_000
TYPE: TSP
DIMENSION: 50
EDGE_WEIGHT_TYPE: EUC_2D
NODE_COORD_SECTION
1 5016 5909
2 8102 7431
3 5350 9174
4 4811 329
5 8233 5284
6 8422 28
7 2148 4551
8 4423 7545
9 7421 3490
10 2667 1467
11 9276 9137
12 9677 9695
13 3873 9396
14 8071 6982
15 5603 4048
16 4579 2038
17 5828 6790
18 2004 9894
19 1203 6175
20 9725 796
21 4694 6159
22 1306 2462
23 4407 1910
24 6200 157
25 9561 9486
26 4133 2976
27 99 2881
28 8933 2763
29 102 503
30 3076 4911
31 409 8425
32 9418 5937
33 2524 7296
34 9068 7084
35 9183 5195
36 7082 9895
37 4807 4625
38 7003 431
39 8664 4950
40 7543 1003
41 4152 8019
42 2569 6653
43 4203 5120
44 1013 8090
45 2444 7064
46 8181 262
47 9195 7594
48 5678 7203
49 1321 9307
50 8475 3103
EOF
