NAME: tsp_uniform_n50_train_002
TYPE: TSP
DIMENSION: 50
EDGE_WEIGHT_TYPE: EUC_2D
NODE_COORD_SECTION
1 8313 9298
2 3217 6788
3 6810 453
4 1771 1788
5 5570 9488
6 7923 4438
7 5325 2002
8 4984 7978
9 8889 4353
10 1606 625
11 1937 9929
12 2485 4953
13 8825 1775
14 3546 5801
15 1994 9563
16 2221 346
17 3065 7218
18 9993 3939
19 1614 9235
20 2666 2792
21 3503 4649
22 7927 8337
23 6639 4991
24 5834 3126
25 662 7482
26 7448 9245
27 1298 7577
28 382 1631
29 6125 4385
30 9583 95
31 7398 8246
32 1805 3368
33 7176 9963
34 3513 39
35 37 3912
36 8434 8051
37 2868 9439
38 3295 3685
39 2997 9934
40 315 2864
41 9099 4951
42 9050 9589
43 9939 6831
44 9308 9393
45 2538 8432
46 9091 6594
47 919 8327
48 840 364
49 7880 4462
50 3540 3583
EOF
