NAME: tsp_uniform_n50_train_018
TYPE: TSP
DIMENSION: 50
EDGE_WEIGHT_TYPE: EUC_2D
NODE_COORD_SECTION
1 5799 9381
2 2674 9237
3 2244 5702
4 1845 5755
5 7070 1432
6 4365 9727
7 5762 6244
8 2964 9393
9 6741 5039
10 397 7580
11 451 6125
12 1336 4944
13 7572 1190
14 3632 742
15 4218 2810
16 1465 4484
17 4518 3727
18 5390 8553
19 996 9884
20 9031 4476
21 6728 7684
22 1957 5376
23 7368 5939
24 3078 3160
25 9309 7248
26 1945 4581
27 6615 3517
28 4310 2987
29 5610 489
30 1137 3931
31 23 9654
32 2686 4453
33 3134 5803
34 8634 8619
35 5839 7200
36 1793 3061
37 2071 6053
38 1291 5841
39 2004 8489
40 5781 3668
41 4508 3190
42 292 5120
43 37 4046
44 3815 1228
45 9937 8008
46 6311 6081
47 5706 7408
48 8124 8114
49 4916 1166
50 5829 9169
EOF
