NAME: tsp_uniform_n50_train_005
TYPE: TSP
DIMENSION: 50
EDGE_WEIGHT_TYPE: EUC_2D
NODE_COORD_SECTION
1 2862 2219
2 7811 5506
3 6389 7654
4 2457 559
5 6940 450
6 9719 9228
7 7940 2520
8 2285 7241
9 6511 1310
10 1516 2239
11 3996 7316
12 5898 7730
13 1167 9306
14 2599 1588
15 5408 2878
16 5874 8657
17 7861 1424
18 7789 465
19 370 1337
20 7800 584
21 6093 1086
22 1000 5830
23 3638 8696
24 3088 666
25 5751 1127
26 1999 8927
27 5061 9912
28 6857 5506
29 7849 7862
30 7835 5889
31 2650 8314
32 2187 2869
33 2569 2608
34 5709 4528
35 2665 5916
36 8356 5362
37 4898 4383
38 8989 2675
39 3375 6985
40 6073 7113
41 5531 8838
42 9620 6267
43 8015 2051
44 7106 1279
45 8647 8976
46 135 2375
47 9502 7757
48 5633 3040
49 4667 852
50 6157 5056
EOF
