NAME: tsp_uniform_n50_train_007
TYPE: TSP
DIMENSION: 50
EDGE_WEIGHT_TYPE: EUC_2D
NODE_COORD_SECTION
1 2550 9989
2 2384 2970
3 8502 3682
4 5789 2460
5 1861 4415
6 631 8466
7 8873 1843
8 7827 8815
9 8304 368
10 6374 9035
11 3309 2035
12 8992 381
13 2471 3938
14 267 9495
15 7357 4121
16 5828 1524
17 5997 4609
18 8227 4962
19 4929 5369
20 5885 3037
21 5051 3336
22 3976 3792
23 7717 6462
24 2477 4686
25 1482 3655
26 1472 2576
27 9127 1224
28 4675 7063
29 5657 8673
30 7783 3438
31 5740 708
32 2015 7623
33 1408 6978
34 1228 2505
35 2966 6545
36 9626 9154
37 7553 9852
38 1380 421
39 9708 4653
40 2446 249
41 3917 9602
42 9550 4179
43 9556 8387
44 6367 8530
45 6142 1706
46 3538 5648
47 6126 6344
48 2239 1579
49 3292 2444
50 4135 1669
EOF
