NAME: tsp_uniform_n50_train_015
TYPE: TSP
DIMENSION: 50
EDGE_WEIGHT_TYPE: EUC_2D
NODE_COORD_SECTION
1 3072 4805
2 9984 2158
3 8529 3531
4 4954 5811
5 9058 5211
6 1101 1499
7 383 6076
8 1331 6098
9 2097 8804
10 667 8431
11 2185 9731
12 7845 5638
13 7141 2825
14 705 2356
15 9457 1451
16 4187 464
17 864 6861
18 740 3414
19 6446 8968
20 4446 6008
21 1659 1057
22 3011 4217
23 8566 4449
24 5664 8636
25 511 9952
26 8596 4535
27 5797 2807
28 3791 7306
29 7247 1249
30 6762 4008
31 7927 1911
32 6380 1014
33 4960 1719
34 760 7654
35 1189 8487
36 236 457
37 8155 3041
38 6712 4983
39 1835 3439
40 4901 6160
41 5011 7692
42 6271 4432
43 3172 9719
44 575 475
45 6807 5373
46 7284 5297
47 6042 63
48 8518 4688
49 1253 6073
50 9731 663
EOF
