NAME: tsp_uniform_n50_train_001
TYPE: TSP
DIMENSION: 50
EDGE_WEIGHT_TYPE: EUC_2D
NODE_COORD_SECTION
1 764 5207
2 722 6876
3 920 6421
4 8002 2419
5 8452 3022
6 4746 7070
7 7667 922
8 5082 7123
9 1989 1388
10 8292 2313
11 5926 7530
12 3967 9742
13 9633 1482
14 2262 4420
15 8613 6584
16 518 1875
17 1571 7583
18 8176 4203
19 5991 9257
20 2828 9956
21 5912 3088
22 5670 1599
23 585 1335
24 1180 3045
25 9712 1240
26 2301 9649
27 7773 9935
28 5202 6021
29 7928 8890
30 8814 1908
31 9222 8207
32 5109 1900
33 6440 9522
34 2617 2084
35 4526 7129
36 2346 165
37 6965 8544
38 7454 675
39 7484 60
40 7439 3429
41 6164 2173
42 9239 1782
43 6155 7424
44 2769 1052
45 927 5930
46 3147 7972
47 3897 8018
48 2496 1720
49 4136 5249
50 4336 2693
EOF
