NAME: tsp_uniform_n50_a_train_017
TYPE: TSP
DIMENSION: 50
EDGE_WEIGHT_TYPE: EUC_2D
NODE_COORD_SECTION
1 6634 2232
2 7465 6120
3 8493 8960
4 9404 6196
5 9435 3828
6 2843 381
7 7780 2669
8 5887 9164
9 3871 3307
10 7982 5714
11 6362 793
12 5257 3606
13 815 6151
14 1137 5479
15 2113 3861
16 7320 4932
17 3909 1359
18 4726 5129
19 9258 1837
20 1636 6822
21 59 2827
22 1221 5145
23 9946 4815
24 1588 8578
25 1304 9933
26 5793 7591
27 9505 2757
28 8188 6297
29 2059 8444
30 5281 8862
31 3682 9419
32 9997 4790
33 3777 6404
34 5356 1890
35 4985 7109
36 2028 4935
37 9421 7077
38 6333 9551
39 2813 8286
40 3968 3841
41 5249 9043
42 482 8246
43 8534 3763
44 7544 8055
45 1101 179
46 9823 8288
47 1128 5508
48 6974 1114
49 6931 6967
50 8253 1406
EOF
