NAME: tsp_uniform_n50_train_019
TYPE: TSP
DIMENSION: 50
EDGE_WEIGHT_TYPE: EUC_2D
NODE_COORD_SECTION
1 2414 787
2 920 8465
3 6222 5320
4 9293 4989
5 3651 350
6 7639 9152
7 7092 2762
8 1121 5105
9 6565 2172
10 3782 593
11 6805 5625
12 9076 552
13 9436 8339
14 2020 4518
15 3506 8355
16 6318 6846
17 3123 1887
18 2665 2360
19 530 9588
20 7810 5070
21 9546 7649
22 3456 3207
23 673 4813
24 3886 7944
25 5651 1119
26 1630 719
27 6961 5710
28 6907 4360
29 8261 3627
30 4594 5083
31 1216 3242
32 9577 3935
33 411 9413
34 416 4696
35 4284 1119
36 9081 2868
37 1560 605
38 4332 4304
39 3039 8839
40 8366 1067
41 3509 4297
42 667 787
43 7365 5130
44 5699 6030
45 7903 1712
46 6434 7946
47 1801 3824
48 1097 4315
49 3489 6027
50 4064 8476
EOF
