NAME: tsp_uniform_n50_train_003
TYPE: TSP
DIMENSION: 50
EDGE_WEIGHT_TYPE: EUC_2D
NODE_COORD_SECTION
1 7027 1199
2 9881 6594
3 7481 5002
4 6973 4779
5 5850 2336
6 4715 822
7 678 1420
8 1798 8230
9 8743 5086
10 2820 3308
11 5613 3955
12 1678 1248
13 4466 6658
14 3388 5879
15 7940 4716
16 8153 4500
17 2824 9315
18 3099 7903
19 3611 6208
20 8966 9902
21 8181 8696
22 318 6196
23 658 6176
24 4559 2706
25 1501 59
26 3515 6624
27 7810 5356
28 4058 3888
29 4335 5768
30 5517 3562
31 9764 4948
32 9161 5558
33 4404 9763
34 5151 7309
35 8933 1118
36 6797 5067
37 9514 611
38 891 4299
39 339 4707
40 7080 9055
41 7692 1773
42 9611 763
43 2656 2792
44 6897 9504
45 7786 1340
46 9056 9861
47 3168 6649
48 3703 5706
49 2703 3977
50 6566 6286
EOF
