NAME: tsp_uniform_n50_train_012
TYPE: TSP
DIMENSION: 50
EDGE_WEIGHT_TYPE: EUC_2D
NODE_COORD_SECTION
1 3422 8881
2 3573 4147
3 9727 6502
4 7664 3214
5 8769 1179
6 1388 7017
7 6998 4049
8 9732 1650
9 9473 4843
10 542 7119
11 8811 4443
12 6098 3066
13 3661 3671
14 3809 9235
15 4640 7772
16 7865 107
17 8339 7782
18 9283 6513
19 9979 2357
20 4507 3114
21 5229 1122
22 662 725
23 8618 6568
24 7817 2699
25 9352 7344
26 9200 1807
27 4019 8229
28 6156 9233
29 9727 5137
30 5822 6038
31 1140 8882
32 3047 8499
33 5667 7769
34 5090 795
35 3347 6820
36 8982 2963
37 2516 6315
38 4729 2906
39 3274 621
40 7943 3134
41 1824 901
42 3214 6162
43 9092 9604
44 7824 5034
45 131 5584
46 2269 7511
47 2501 5356
48 1134 9603
49 3204 1251
50 3297 7547
EOF
