NAME: tsp_uniform_n50_train_010
TYPE: TSP
DIMENSION: 50
EDGE_WEIGHT_TYPE: EUC_2D
NODE_COORD_SECTION
1 2160 2170
2 3123 9344
3 4690 7044
4 1401 5327
5 4087 1287
6 2669 4299
7 5956 6805
8 6017 10000
9 5931 222
10 5480 8057
11 6667 1966
12 5393 8607
13 1786 9168
14 1315 6291
15 5302 9990
16 2893 4674
17 5743 6105
18 2053 7193
19 3893 2403
20 1114 9428
21 1213 1877
22 5360 772
23 6152 1782
24 7528 8280
25 3075 3512
26 312 6717
27 9844 1213
28 4653 8506
29 6497 7610
30 9749 6519
31 8299 2363
32 7755 167
33 6792 2551
34 4020 2299
35 9796 8525
36 4786 3657
37 2674 4665
38 408 1988
39 2217 164
40 6317 4353
41 8758 8691
42 9911 4008
43 8235 1304
44 167 714
45 9030 5217
46 5869 9843
47 122 2875
48 7410 3917
49 4485 2496
50 7337 4272
EOF
