NAME: tsp_uniform_n50_a_train_015
TYPE: TSP
DIMENSION: 50
EDGE_WEIGHT_TYPE: EUC_2D
NODE_COORD_SECTION
1 579 2284
2 7790 7927
3 1211 4166
4 6760 7265
5 7952 8059
6 7870 3365
7 365 2858
8 6557 3879
9 2715 9882
10 2643 2608
11 6577 1188
12 4766 1916
13 1571 2162
14 8235 3182
15 2953 9259
16 4048 9809
17 8942 6561
18 1332 3192
19 4112 3216
20 1935 3021
21 388 1889
22 1064 4036
23 8472 6700
24 3525 5317
25 1743 3589
26 8443 2318
27 5523 1763
28 7111 5877
29 6010 3281
30 8904 9868
31 1961 3616
32 7683 8202
33 7804 3708
34 2350 2747
35 3471 6248
36 2204 9249
37 1421 6768
38 3777 607
39 5040 6703
40 1216 9837
41 8686 5615
42 7736 8036
43 2024 4882
44 1883 5090
45 387 6306
46 9602 7301
47 8004 9690
48 2842 9496
49 7479 5311
50 9096 1669
EOF
