NAME: tsp_uniform_n50_train_008
TYPE: TSP
DIMENSION: 50
EDGE_WEIGHT_TYPE: EUC_2D
NODE_COORD_SECTION
1 8855 4419
2 6350 5954
3 6798 8390
4 2323 3854
5 4994 2351
6 5385 8274
7 2295 9378
8 5882 5940
9 3332 2147
10 3319 2479
11 1418 8217
12 8679 339
13 1159 7517
14 3793 8222
15 311 1428
16 1426 9514
17 7922 4778
18 2304 7089
19 9927 8625
20 7921 9099
21 9565 2027
22 8338 4997
23 8827 2010
24 7009 8685
25 9697 9218
26 7470 6481
27 7361 8493
28 413 7824
29 8213 124
30 2852 5035
31 7023 9925
32 9636 6565
33 2181 7292
34 1024 6836
35 880 5681
36 7192 5257
37 5980 2340
38 6119 362
39 5487 5934
40 7816 1375
41 1697 3706
42 1218 4419
43 6401 6753
44 9595 1081
45 7727 8289
46 4350 5917
47 1930 2068
48 3049 6387
49 4454 5879
50 3063 4549
EOF
