NAME: tsp_uniform_n50_a_train_008
TYPE: TSP
DIMENSION: 50
EDGE_WEIGHT_TYPE: EUC_2D
NODE_COORD_SECTION
1 2493 3747
2 8030 9315
3 7512 2879
4 830 9264
5 2081 7771
6 8173 300
7 9036 3524
8 8412 2964
9 7597 2580
10 6798 1946
11 4387 7280
12 618 1662
13 8014 7265
14 3582 9665
15 4185 3100
16 5210 4977
17 8186 4134
18 1913 2393
19 5299 4173
20 5159 6719
21 2490 314
22 8575 3637
23 4312 7786
24 2849 9277
25 1425 2858
26 4882 1367
27 6748 1526
28 7493 1497
29 9961 4080
30 2242 7461
31 3774 4144
32 7733 2534
33 7335 9834
34 4577 4474
35 3502 8292
36 9642 3631
37 8830 7914
38 6759 9589
39 4055 9124
40 9829 9937
41 7637 3600
42 1633 4091
43 1280 9611
44 5904 6640
45 665 6714
46 981 9507
47 4440 4047
48 8171 4861
49 5330 1318
50 7185 5306
EOF
