NAME: tsp_uniform_n50_a_train_018
TYPE: TSP
DIMENSION: 50
EDGE_WEIGHT_TYPE: EUC_2D
NODE_COORD_SECTION
1 3265 5602
2 5023 3974
3 1712 5357
4 9398 6183
5 2307 6341
6 9499 3483
7 4058 329
8 8610 3660
9 6976 8286
10 1230 2397
11 1371 7632
12 6239 3932
13 9073 3625
14 6530 975
15 7027 8917
16 2723 7070
17 4036 5701
18 651 588
19 5828 3690
20 4865 714
21 9224 4672
22 699 6766
23 1225 6824
24 3417 1891
25 9109 3562
26 5476 565
27 5820 1873
28 1875 8129
29 1599 6989
30 3630 1565
31 9277 4345
32 5378 4008
33 4655 9101
34 9790 5894
35 7721 8314
36 5902 9688
37 8233 9587
38 1414 5347
39 7205 4916
40 9489 2418
41 6439 9987
42 9555 7312
43 8546 9296
44 8491 1858
45 909 1574
46 2472 6449
47 7139 4403
48 5042 2337
49 9426 113
50 2929 7020
EOF
