NAME: tsp_uniform_n50_a_train_010
TYPE: TSP
DIMENSION: 50
EDGE_WEIGHT_TYPE: EUC_2D
NODE_COORD_SECTION
1 8701 3455
2 4097 9056
3 8008 4330
4 9680 1869
5 2625 1745
6 4969 3112
7 7008 1448
8 1901 7880
9 3069 8537
10 4519 5804
11 1963 3831
12 713 3318
13 5999 5671
14 4840 7259
15 6645 3942
16 7788 2291
17 8184 4936
18 7268 8317
19 1045 3400
20 9207 5571
21 1500 9841
22 1248 8586
23 1578 4934
24 755 6252
25 4340 1822
26 2161 6069
27 763 3681
28 8989 1873
29 5849 4099
30 3798 7369
31 1150 4645
32 5084 9772
33 65 3156
34 2064 7048
35 3974 1109
36 2537 8287
37 2599 9882
38 3536 5859
39 2441 9119
40 4950 8902
41 8196 1864
42 5005 9326
43 1666 732
44 3103 2981
45 1670 159
46 4169 7577
47 7180 6811
48 9029 3333
49 6221 5840
50 7614 419
EOF
