NAME: tsp_uniform_n50_a_train_005
TYPE: TSP
DIMENSION: 50
EDGE_WEIGHT_TYPE: EUC_2D
NODE_COORD_SECTION
1 8143 427
2 7291 1794
3 5731 2495
4 1680 9553
5 2027 6842
6 2996 8037
7 2102 5981
8 852 2351
9 7425 3115
10 5671 6147
11 6581 4144
12 8435 6840
13 5130 3068
14 3656 7918
15 81 2897
16 5232 1877
17 1319 5852
18 2888 571
19 1680 5882
20 2234 9358
21 6358 2491
22 5184 64
23 1619 3569
24 4251 7755
25 4769 6762
26 5929 828
27 4955 6916
28 4485 6018
29 9882 8061
30 1442 8094
31 3644 3882
32 8512 3410
33 7752 7508
34 8593 9384
35 3436 8994
36 6047 6180
37 1604 8098
38 4375 2240
39 5221 3788
40 4404 7456
41 4333 6990
42 4992 9637
43 7566 5779
44 4301 463
45 4190 3832
46 7435 5762
47 7216 3848
48 6148 2744
49 3231 5863
50 287 2454
EOF
