NAME: tsp_uniform_n50_a_train_001
TYPE: TSP
DIMENSION: 50
EDGE_WEIGHT_TYPE: EUC_2D
NODE_COORD_SECTION
1 200 1342
2 5658 4192
3 6781 3889
4 480 6476
5 3461 6145
6 413 3353
7 7600 8895
8 5891 1446
9 9623 2585
10 3283 8216
11 3155 9653
12 2828 3922
13 6042 8333
14 2597 5600
15 1551 3999
16 5888 8879
17 5282 4267
18 1953 5663
19 3598 1372
20 520 373
21 7261 3693
22 5795 7104
23 3048 6015
24 592 4605
25 2643 267
26 3161 4644
27 7636 2428
28 7500 8227
29 7424 4354
30 9444 3549
31 5949 3781
32 813 7230
33 3791 8783
34 7896 1619
35 9558 3464
36 8005 7960
37 9272 6536
38 448 627
39 3843 3084
40 9509 9765
41 820 7430
42 5278 2172
43 5205 3704
44 1474 2469
45 1262 8791
46 6866 4788
47 9686 2599
48 2881 3212
49 8655 2640
50 5658 8918
EOF
