NAME: tsp_uniform_n50_train_011
TYPE: TSP
DIMENSION: 50
EDGE_WEIGHT_TYPE: EUC_2D
NODE_COORD_SECTION
1 418 4234
2 9832 6341
3 6040 4193
4 1281 6116
5 4599 6398
6 4974 8737
7 2545 3979
8 9184 4432
9 654 2256
10 8169 3560
11 8815 5548
12 1345 1951
13 6766 2820
14 2247 664
15 9924 6289
16 5392 1365
17 6938 7011
18 692 8045
19 940 1310
20 1638 3808
21 9822 3346
22 8347 1464
23 6595 2260
24 5171 4481
25 5701 82
26 2929 6518
27 9750 3024
28 3502 8619
29 5824 7493
30 150 7673
31 7019 2212
32 3698 921
33 4267 535
34 429 7756
35 1983 4900
36 8518 6318
37 1640 2953
38 718 8786
39 4366 1035
40 6893 5318
41 9598 64
42 3487 3181
43 4672 278
44 9961 9824
45 2634 5794
46 8535 4875
47 6233 6498
48 6907 1631
49 7569 9933
50 1416 3748
EOF
