NAME: tsp_uniform_n50_a_train_002
TYPE: TSP
DIMENSION: 50
EDGE_WEIGHT_TYPE: EUC_2D
NODE_COORD_SECTION
1 8286 7230
2 1321 4883
3 5172 6034
4 1916 1947
5 4009 9959
6 1030 3712
7 7386 5259
8 8946 4750
9 5240 4118
10 4247 5638
11 846 693
12 4688 3922
13 552 1259
14 9718 7698
15 75 9499
16 5154 5277
17 6620 20
18 9726 8095
19 1092 8070
20 8322 5384
21 3072 9984
22 3135 3008
23 8980 5440
24 6409 5276
25 1084 7349
26 74 5884
27 7738 8904
28 2355 7933
29 809 2147
30 5719 3825
31 2584 2075
32 7796 4805
33 8328 8238
34 6829 794
35 439 539
36 9803 2273
37 377 2220
38 5843 2383
39 4551 516
40 7255 1103
41 3884 3183
42 6872 2192
43 3662 5080
44 9859 8806
45 8702 2200
46 4495 7894
47 1867 4825
48 7830 5352
49 2425 3356
50 4357 3118
EOF
