NAME: tsp_uniform_n50_a_train_019
TYPE: TSP
DIMENSION: 50
EDGE_WEIGHT_TYPE: EUC_2D
NODE_COORD_SECTION
1 529 892
2 9355 5489
3 1125 938
4 7566 3664
5 5737 8219
6 5891 7856
7 63 9998
8 9303 9817
9 1519 1130
10 3248 6937
11 7666 6280
12 1435 340
13 9549 7547
14 9718 4262
15 7143 1583
16 6659 4319
17 4956 7319
18 3705 8136
19 312 316
20 3183 7081
21 6491 8176
22 6953 434
23 6893 4678
24 9594 1166
25 7225 6448
26 9492 7507
27 1995 9170
28 6583 7301
29 4777 8914
30 9597 7950
31 8710 5570
32 7628 7656
33 7065 6865
34 7469 9145
35 1908 8327
36 5097 6069
37 9032 7671
38 3147 8290
39 7752 4954
40 9042 9881
41 3136 4110
42 4013 6180
43 3149 992
44 8245 121
45 1607 3959
46 1123 63
47 7773 8796
48 196 2907
49 2217 3797
50 1453 3135
EOF
