NAME: tsp_uniform_n50_train_004
TYPE: TSP
DIMENSION: 50
EDGE_WEIGHT_TYPE: EUC_2D
NODE_COORD_SECTION
1 8986 1571
2 3636 3950
3 5079 726
4 8283 1389
5 2775 3075
6 8034 4474
7 6622 4140
8 7264 4867
9 2196 857
10 4906 7583
11 9805 527
12 8638 5787
13 1209 3024
14 1829 9679
15 90 1021
16 447 4883
17 1818 1582
18 6565 9573
19 4704 6563
20 1715 7930
21 5909 9759
22 1434 9809
23 4821 9012
24 4322 6507
25 3373 314
26 5240 6497
27 3570 3781
28 6699 6833
29 5119 6326
30 8223 4867
31 1603 5992
32 1574 3375
33 6416 516
34 9547 2107
35 3117 6657
36 843 1816
37 3975 3643
38 1591 2878
39 5246 1777
40 2715 8010
41 1298 309
42 8482 1770
43 6052 9040
44 1951 1807
45 7386 1199
46 7371 1574
47 4739 7425
48 5675 3400
49 3433 5040
50 9194 8788
EOF
