NAME: tsp_uniform_n50_train_017
TYPE: TSP
DIMENSION: 50
EDGE_WEIGHT_TYPE: EUC_2D
NODE_COORD_SECTION
1 4195 2751
2 303 9223
3 7876 7451
4 6118 8213
5 8476 7434
6 6580 6892
7 7493 2539
8 3062 6704
9 750 9250
10 5026 537
11 7276 9173
12 8323 8271
13 217 1611
14 4272 2888
15 1351 551
16 1625 3616
17 8466 2251
18 2419 2527
19 7894 5811
20 7018 7007
21 7696 6537
22 8119 8919
23 1157 4191
24 1043 5682
25 9758 2571
26 3432 8042
27 9147 3610
28 1659 3229
29 7254 6875
30 4606 2711
31 9075 7261
32 3023 3120
33 9737 8189
34 9452 1573
35 2534 7050
36 8075 3271
37 7608 7445
38 395 9438
39 1892 6399
40 6911 4674
41 1670 1587
42 2031 6358
43 6858 1595
44 9086 7504
45 3351 4257
46 8086 3975
47 9572 9155
48 4663 3201
49 188 9639
50 8097 1086
EOF
