NAME: tsp_uniform_n50_a_train_016
TYPE: TSP
DIMENSION: 50
EDGE_WEIGHT_TYPE: EUC_2D
NODE_COORD_SECTION
1 9248 6937
2 4930 9472
3 9653 832
4 9363 7626
5 8106 9179
6 8511 6235
7 8843 6388
8 4618 5728
9 286 8462
10 7253 6273
11 9480 2042
12 9941 7410
13 4172 4674
14 9821 7082
15 4725 8450
16 5651 3801
17 7636 7609
18 4075 9424
19 8633 6715
20 329 5153
21 2019 5812
22 935 7068
23 7764 3096
24 4139 802
25 4758 9371
26 8586 1612
27 6849 9368
28 9131 3910
29 144 3618
30 9533 3539
31 4707 9124
32 7024 3542
33 374 3958
34 911 2976
35 20 3884
36 5582 6108
37 7090 4313
38 1299 3377
39 4274 162
40 8716 6416
41 610 665
42 5273 3988
43 700 5122
44 2415 9063
45 2303 520
46 3655 6334
47 6261 52
48 908 1880
49 325 2606
50 4449 7927
EOF
