NAME: tsp_uniform_n50_train_013
TYPE: TSP
DIMENSION: 50
EDGE_WEIGHT_TYPE: EUC_2D
NODE_COORD_SECTION
1 1634 306
2 4423 1227
3 3891 3313
4 4485 531
5 5575 6998
6 5081 8012
7 4856 9468
8 406 1486
9 7102 8014
10 1801 2658
11 9225 2637
12 5673 7743
13 8184 7777
14 162 2596
15 8624 5236
16 4471 9574
17 5724 451
18 8204 7691
19 344 9708
20 1814 9745
21 3624 7108
22 9184 8675
23 4609 547
24 7824 2616
25 5175 5490
26 3219 2199
27 8423 6661
28 2998 7585
29 9653 1107
30 3997 7561
31 2354 8523
32 3988 6606
33 8154 9343
34 9586 3898
35 5788 5087
36 664 3653
37 3827 9852
38 4136 1524
39 2843 5648
40 2765 158
41 6636 7850
42 7926 8496
43 5926 7345
44 355 2684
45 4996 24
46 1056 3155
47 6695 3975
48 3690 5169
49 7476 5528
50 1037 2113
EOF
