NAME: tsp_uniform_n50_a_train_003
TYPE: TSP
DIMENSION: 50
EDGE_WEIGHT_TYPE: EUC_2D
NODE_COORD_SECTION
1 6510 3487
2 8649 6334
3 5873 3909
4 8871 8594
5 1920 3061
6 5835 2256
7 8794 4610
8 824 989
9 9376 4346
10 376 9152
11 779 9432
12 7246 1685
13 2972 8909
14 3393 2565
15 8143 3724
16 7429 7304
17 4082 3193
18 7185 7858
19 6839 4570
20 8744 9151
21 556 6885
22 8310 3269
23 4556 3195
24 6466 1868
25 9865 3859
26 2353 4930
27 6656 7630
28 5809 9134
29 166 1741
30 7432 8934
31 3724 5217
32 142 4096
33 1206 4314
34 2523 2116
35 7457 6208
36 8598 6277
37 1900 9109
38 4242 5298
39 8543 9944
40 5859 6910
41 7790 9874
42 6922 9582
43 4521 7599
44 754 922
45 7647 7543
46 5268 9312
47 983 8909
48 5590 5641
49 268 5766
50 4644 564
EOF
