NAME: tsp_uniform_n50_a_train_006
TYPE: TSP
DIMENSION: 50
EDGE_WEIGHT_TYPE: EUC_2D
NODE_COORD_SECTION
1 5283 2747
2 8286 5012
3 5301 1776
4 6307 238
5 9392 3949
6 2329 8083
7 8298 767
8 6559 6515
9 10000 7911
10 8937 354
11 3840 1656
12 1684 4785
13 427 511
14 6810 7125
15 6556 9558
16 155 2734
17 7271 3481
18 1310 8424
19 6985 5695
20 2274 9754
21 17 2522
22 7790 1043
23 1668 4660
24 2498 846
25 3189 7921
26 697 5893
27 5437 1455
28 2736 5937
29 9313 8376
30 9410 8529
31 3769 3135
32 3006 785
33 5617 4985
34 8289 5940
35 9894 6857
36 4274 9531
37 2843 8525
38 3907 1934
39 7611 3801
40 2380 3834
41 6375 987
42 6344 5417
43 9005 1301
44 8243 8752
45 5193 7610
46 3063 5904
47 6984 847
48 1192 1892
49 7907 5980
50 9376 3822
EOF
