NAME: tsp_uniform_n50_train_006
TYPE: TSP
DIMENSION: 50
EDGE_WEIGHT_TYPE: EUC_2D
NODE_COORD_SECTION
1 4827 7742
2 5577 9024
3 1868 1318
4 9666 4637
5 7863 1044
6 5616 1196
7 530 7392
8 9649 2650
9 3220 8105
10 760 2213
11 3109 9464
12 8519 3649
13 7024 4141
14 3166 4217
15 1165 8879
16 8398 7255
17 2389 3006
18 2710 2545
19 9826 8265
20 5256 1011
21 1777 1852
22 1440 2597
23 8308 2037
24 2473 1186
25 746 2314
26 3715 2338
27 3116 6079
28 789 2611
29 5921 1431
30 6684 1978
31 7211 3999
32 6664 157
33 8645 3653
34 2030 6266
35 1260 9188
36 3980 3889
37 7455 2278
38 82 1564
39 6595 4068
40 2738 4860
41 2672 2407
42 4522 3903
43 6800 1328
44 2579 3576
45 2404 8892
46 5412 4637
47 9346 4767
48 7738 4128
49 3602 4818
50 3159 6631
EOF
