NAME: tsp_uniform_n50_a_train_007
TYPE: TSP
DIMENSION: 50
EDGE_WEIGHT_TYPE: EUC_2D
NODE_COORD_SECTION
1 5148 2696
2 9139 8772
3 4617 4332
4 3218 2885
5 3370 9731
6 8894 7742
7 5542 8929
8 8054 5123
9 3620 6925
10 3479 3188
11 2705 1884
12 2533 8468
13 7221 8096
14 7126 6766
15 2170 3754
16 5853 7847
17 6531 2218
18 610 8513
19 4087 8071
20 3262 6963
21 5751 3162
22 8024 6485
23 3228 2620
24 527 765
25 285 1604
26 2376 8191
27 5491 4364
28 2737 1183
29 4016 8050
30 2457 2074
31 958 8615
32 3033 6633
33 4757 1476
34 3793 6851
35 8082 6138
36 2480 1874
37 146 1592
38 9046 8252
39 7598 6516
40 4021 4534
41 3290 1166
42 5593 2095
43 4996 9253
44 3612 567
45 2240 330
46 2980 9976
47 7440 3879
48 8014 5695
49 4172 8766
50 195 9211
EOF
