NAME: tsp_uniform_n50_a_train_009
TYPE: TSP
DIMENSION: 50
EDGE_WEIGHT_TYPE: EUC_2D
NODE_COORD_SECTION
1 1221 9561
2 7699 9533
3 1367 8355
4 1931 6908
5 7914 5110
6 5278 1701
7 7336 1658
8 30 7020
9 3485 7051
10 1124 7246
11 9499 1686
12 6245 1831
13 8474 721
14 2155 9572
15 606 3604
16 2789 4943
17 4173 62
18 5204 7685
19 9990 5392
20 957 8989
21 858 6524
22 45 1952
23 3545 14
24 683 3459
25 2471 9886
26 7531 1658
27 5182 7010
28 333 3801
29 7591 6096
30 5745 15
31 9227 9695
32 3581 6663
33 8741 4044
34 6512 5306
35 5595 3319
36 8839 6602
37 4307 5589
38 1912 5962
39 3154 2181
40 2108 6746
41 5990 8406
42 6352 3066
43 5450 9893
44 8365 5761
45 5790 3387
46 2168 4896
47 4352 6576
48 1269 8223
49 9284 9203
50 7100 5787
EOF
