NAME: tsp_uniform_n50_train_000
TYPE: TSP
DIMENSION: 50
EDGE_WEIGHT_TYPE: EUC_2D
NODE_COORD_SECTION
1 9311 7997
2 2321 5178
3 8594 5818
4 4307 9536
5 9505 9647
6 3050 6446
7 8134 7337
8 4950 7287
9 2473 8243
10 750 5125
11 2681 9926
12 6297 3797
13 4025 3166
14 3096 2141
15 7133 7428
16 9327 5637
17 1939 8318
18 6190 8179
19 4159 2129
20 3869 4480
21 2769 5331
22 2931 1497
23 6711 6319
24 6951 9266
25 4662 6773
26 3653 8022
27 1063 6911
28 87 710
29 5439 2669
30 1582 5148
31 4232 7747
32 3791 1244
33 5505 5317
34 1996 5831
35 4794 3792
36 7573 925
37 712 9795
38 8971 8948
39 299 9293
40 9543 7444
41 286 369
42 3391 9663
43 9462 94
44 2216 4000
45 355 5463
46 9767 2475
47 3627 3206
48 8 9687
49 3048 1617
50 551 3675
EOF
