NAME: tsp_uniform_n50_train_009
TYPE: TSP
DIMENSION: 50
EDGE_WEIGHT_TYPE: EUC_2D
NODE_COORD_SECTION
1 1784 3289
2 5550 2459
3 6397 7100
4 9759 3129
5 3708 6858
6 9910 5928
7 119 8855
8 700 3525
9 7298 8102
10 931 6497
11 8776 1251
12 404 7197
13 5534 8951
14 7516 2732
15 742 4867
16 4897 3769
17 5581 9850
18 3174 3430
19 3384 5085
20 8886 8948
21 3812 8235
22 6369 2784
23 473 4736
24 9353 4072
25 275 3244
26 1015 8518
27 6384 1097
28 7953 4850
29 3576 5636
30 1764 6241
31 5121 3308
32 9110 4640
33 3457 3995
34 9025 1521
35 3674 530
36 9391 8659
37 7823 499
38 1233 9457
39 5897 3016
40 8512 7891
41 9617 6164
42 4577 5035
43 1735 5307
44 9876 7593
45 6273 2208
46 254 8376
47 2154 6993
48 5505 4648
49 1365 7507
50 878 4765
EOF
