NAME: tsp_uniform_n50_train_016
TYPE: TSP
DIMENSION: 50
EDGE_WEIGHT_TYPE: EUC_2D
NODE_COORD_SECTION
1 347 8744
2 2569 4474
3 6907 5240
4 617 178
5 1992 6891
6 1508 5820
7 7203 8762
8 9121 3562
9 1593 1232
10 2609 8921
11 3871 5384
12 7102 6656
13 2404 7323
14 7620 4254
15 3330 3443
16 543 927
17 3051 1993
18 8368 9331
19 8002 5411
20 2123 7294
21 4770 629
22 7899 5798
23 8627 2084
24 5688 7380
25 4460 8701
26 8571 2749
27 9407 7509
28 1670 8053
29 7542 8355
30 8988 325
31 3724 3755
32 3550 8141
33 8057 6268
34 6208 7452
35 2211 3855
36 8934 3487
37 3450 2980
38 7556 2895
39 1357 8297
40 9908 2240
41 5357 9348
42 5178 8168
43 5848 6333
44 5479 6509
45 9051 2805
46 9595 8040
47 6637 8845
48 2264 5474
49 5345 2698
50 7123 7134
EOF
