NAME: tsp_uniform_n50_train_014
TYPE: TSP
DIMENSION: 50
EDGE_WEIGHT_TYPE: EUC_2D
NODE_COORD_SECTION
1 4643 6206
2 5749 7690
3 4565 423
4 6845 9948
5 773 3507
6 4914 3957
7 3903 9782
8 2395 7427
9 9258 6307
10 1056 268
11 1266 5413
12 5788 3020
13 9342 3414
14 8414 4883
15 9134 3241
16 3824 1574
17 8935 356
18 7891 5248
19 3526 2457
20 9822 7837
21 5812 3355
22 1038 5457
23 5197 4552
24 5377 1389
25 7625 2660
26 1214 5247
27 8725 4906
28 3089 1836
29 4093 4194
30 3537 7933
31 3056 1845
32 4262 9048
33 917 1817
34 5021 9448
35 4940 3401
36 2631 6745
37 2377 5727
38 2020 1371
39 8676 3271
40 4708 5159
41 9604 1542
42 4159 8687
43 4348 5981
44 6087 1325
45 7623 8351
46 3603 1342
47 370 6787
48 6451 5348
49 3697 9180
50 9544 8766
EOF
