NAME: cvrp_uniform_n30_smoke_000-k6
TYPE: CVRP
DIMENSION: 30
EDGE_WEIGHT_TYPE: EUC_2D
CAPACITY: 46
NODE_COORD_SECTION
1 7068 2457
2 9697 3670
3 5379 8307
4 869 8823
5 1737 9410
6 922 8657
7 6935 9023
8 7055 9119
9 1845 6862
10 7576 6139
11 8246 4914
12 4147 1633
13 7342 2647
14 951 141
15 1218 9671
16 9705 1775
17 7604 3128
18 736 585
19 4263 8229
20 6670 3635
21 1035 7047
22 7321 6504
23 7830 5963
24 394 1159
25 6230 419
26 7143 4706
27 6555 4731
28 217 1673
29 5128 2419
30 9998 9266
DEMAND_SECTION
1 0
2 8
3 7
4 1
5 10
6 6
7 5
8 1
9 3
10 10
11 6
12 9
13 7
14 6
15 10
16 6
17 7
18 10
19 9
20 1
21 8
22 9
23 10
24 3
25 6
26 6
27 4
28 3
29 8
30 7
DEPOT_SECTION
1
-1
EOF
