NAME: cvrp_uniform_n30_smoke_001-k6
TYPE: CVRP
DIMENSION: 30
EDGE_WEIGHT_TYPE: EUC_2D
CAPACITY: 41
NODE_COORD_SECTION
1 1923 6663
2 142 3497
3 6559 6445
4 4366 7227
5 3464 6723
6 7542 9311
7 8580 4406
8 7604 14
9 304 7006
10 9619 5156
11 6310 1753
12 7741 7082
13 5197 8851
14 418 8419
15 6087 3529
16 7846 3260
17 1862 2036
18 9687 9473
19 8868 8448
20 435 8047
21 944 8571
22 5734 2407
23 7333 4187
24 8143 1014
25 6110 818
26 3742 915
27 7738 1413
28 9766 2952
29 7143 9282
30 3359 4743
DEMAND_SECTION
1 0
2 4
3 7
4 10
5 3
6 4
7 7
8 10
9 10
10 9
11 3
12 6
13 6
14 8
15 3
16 4
17 5
18 7
19 5
20 1
21 2
22 9
23 8
24 10
25 2
26 4
27 4
28 5
29 5
30 5
DEPOT_SECTION
1
-1
EOF
