NAME: tsp_uniform_n100_train_016
TYPE: TSP
DIMENSION: 100
EDGE_WEIGHT_TYPE: EUC_2D
NODE_COORD_SECTION
1 2444 4327
2 9536 3975
3 3650 245
4 8202 647
5 9201 3176
6 5024 9143
7 7555 4503
8 1354 739
9 770 1280
10 9552 8513
11 6243 4869
12 7114 1907
13 5152 2558
14 2542 2478
15 6588 1043
16 3446 2283
17 7748 7080
18 5456 9305
19 3684 2932
20 1029 9227
21 6764 2980
22 7193 1729
23 2069 9405
24 7064 2658
25 4372 4019
26 9863 9163
27 2332 4821
28 8617 2500
29 7227 6785
30 3854 3684
31 6468 9732
32 2174 1412
33 3664 4078
34 5616 9271
35 491 7741
36 7400 8418
37 1138 6185
38 8321 8047
39 4694 127
40 2969 7469
41 2197 2566
42 7426 9595
43 567 5075
44 3674 658
45 4348 7903
46 7877 4079
47 370 5012
48 7967 2615
49 5172 2599
50 7580 7907
51 7533 1196
52 6607 7239
53 2906 715
54 5691 3856
55 4018 2459
56 8724 8871
57 1178 495
58 7795 4853
59 402 1073
60 1183 8749
61 5959 8005
62 1556 9968
63 4471 5964
64 8872 9443
65 4546 8941
66 3993 6977
67 7956 3723
68 5189 2201
69 7392 3803
70 545 7076
71 417 9981
72 8574 8723
73 7917 3169
74 2611 8653
75 3422 4585
76 3881 2054
77 3075 2994
78 5012 6609
79 2936 5814
80 7193 4916
81 7108 958
82 2210 16
83 8628 6118
84 3498 8683
85 5408 3195
86 4084 7779
87 6571 5521
88 6272 7632
89 3406 2705
90 1394 6077
91 436 3356
92 5674 1700
93 3854 1788
94 8812 4263
95 8968 7756
96 9380 2014
97 3753 4319
98 7231 8797
99 4256 9205
100 7727 3261
EOF
