NAME: tsp_uniform_n100_train_008
TYPE: TSP
DIMENSION: 100
EDGE_WEIGHT_TYPE: EUC_2D
NODE_COORD_SECTION
1 8380 1819
2 8461 1426
3 4426 6992
4 755 9774
5 5040 2568
6 1592 9016
7 4763 7717
8 6625 8696
9 651 2574
10 3444 4871
11 4947 7071
12 6023 9832
13 4141 3410
14 3032 6973
15 6794 7820
16 2036 4686
17 4433 9872
18 6572 616
19 6284 5811
20 2050 8217
21 3613 8570
22 6892 605
23 1329 9512
24 3081 3258
25 4350 3842
26 2776 5703
27 3055 2793
28 821 8004
29 4756 6973
30 492 3102
31 1895 6740
32 2773 6719
33 8069 6016
34 4325 2999
35 1066 9725
36 4220 655
37 5747 6113
38 1527 5535
39 3461 8736
40 404 9096
41 2473 2423
42 5430 5811
43 4828 4824
44 468 8763
45 3850 3028
46 7812 6243
47 3977 4908
48 8388 9401
49 6148 342
50 2248 1315
51 3891 5716
52 8734 2877
53 148 7310
54 468 701
55 7965 9840
56 570 9672
57 1178 6849
58 1581 109
59 2660 6549
60 5781 8071
61 1190 8208
62 8786 9223
63 9790 91
64 3053 2105
65 8665 958
66 2623 3741
67 4265 2746
68 1896 7424
69 6918 3846
70 3871 3176
71 5175 4773
72 4238 2603
73 974 92
74 1644 8609
75 612 6677
76 1539 3476
77 7910 1543
78 836 2229
79 661 2560
80 1201 9463
81 2744 8877
82 2874 8977
83 6357 607
84 5590 2677
85 9172 5244
86 4539 8161
87 9998 118
88 1819 8673
89 3205 1202
90 7879 5105
91 5542 7515
92 5288 2729
93 3478 5128
94 4825 7480
95 8087 6366
96 5785 4013
97 6983 4137
98 8923 3733
99 639 9197
100 9256 1752
EOF
