NAME: tsp_uniform_n100_train_007
TYPE: TSP
DIMENSION: 100
EDGE_WEIGHT_TYPE: EUC_2D
NODE_COORD_SECTION
1 9393 1028
2 558 6810
3 1341 5636
4 5930 2631
5 3591 3896
6 8059 7767
7 2985 9016
8 4995 8817
9 5618 6119
10 5071 5611
11 9995 1101
12 8683 9915
13 9212 7385
14 8446 9661
15 615 8816
16 8543 9859
17 1405 8767
18 7182 762
19 8636 7646
20 9778 989
21 8908 978
22 187 9
23 5547 9999
24 1687 3845
25 2446 3394
26 8902 5168
27 4766 1187
28 290 4908
29 1020 2926
30 9814 8617
31 3062 7246
32 8967 5324
33 1033 8417
34 3648 8532
35 1706 5659
36 5655 2611
37 640 2072
38 2909 4821
39 2879 3276
40 3835 7119
41 6645 2525
42 4985 9052
43 613 3696
44 5347 712
45 579 3474
46 1985 7709
47 2301 1981
48 9474 4934
49 5094 8632
50 9715 1805
51 5325 2179
52 4319 2679
53 7660 7951
54 4945 1455
55 7593 2583
56 8011 3782
57 6624 4115
58 4251 8860
59 8787 9092
60 389 9524
61 5506 7602
62 346 6691
63 3997 9172
64 9693 6566
65 7033 8032
66 9509 7538
67 7945 1398
68 7294 7487
69 9703 4352
70 5889 9211
71 821 369
72 3662 5324
73 3883 7641
74 7384 7398
75 9462 8566
76 2611 2210
77 2500 5906
78 2263 2003
79 279 3167
80 2804 9713
81 9285 9009
82 9102 8323
83 6254 2575
84 4205 9592
85 7800 8648
86 4137 5479
87 1885 5107
88 5295 2632
89 5475 8060
90 6312 9828
91 1759 2578
92 5608 8372
93 5167 4940
94 6011 4704
95 2851 1802
96 8010 3065
97 8590 6157
98 3154 7938
99 2242 4019
100 2071 1769
EOF
