NAME: tsp_uniform_n100_train_004
TYPE: TSP
DIMENSION: 100
EDGE_WEIGHT_TYPE: EUC_2D
NODE_COORD_SECTION
1 344 6585
2 1221 30
3 5823 6031
4 5715 8393
5 8954 2820
6 7501 9587
7 8313 9868
8 4433 4672
9 6502 5703
10 115 2231
11 2873 1611
12 725 3499
13 8916 3732
14 3492 7638
15 3135 6141
16 5358 9966
17 2581 5032
18 2009 2264
19 5247 3590
20 9647 5219
21 5207 7456
22 3326 5313
23 7827 9148
24 9722 1274
25 4739 5835
26 427 2943
27 2068 1986
28 4670 39
29 7446 7336
30 5518 1124
31 4403 3069
32 3499 1979
33 7553 2086
34 6157 1644
35 3681 9436
36 8093 593
37 1179 5808
38 2587 2233
39 3940 8512
40 9785 4181
41 8162 5396
42 8571 1879
43 5658 4187
44 7579 2482
45 3053 1989
46 9208 2271
47 7009 8580
48 9177 8400
49 8355 9124
50 810 817
51 4140 6891
52 3467 5368
53 740 3537
54 2233 3347
55 5940 9646
56 9057 4758
57 4877 6415
58 2005 7409
59 5151 2743
60 8135 526
61 9513 8137
62 6305 4020
63 3037 6807
64 4184 8326
65 2972 4054
66 1735 6903
67 4462 8160
68 1637 4995
69 8064 879
70 9149 1846
71 1188 2941
72 9485 693
73 258 749
74 3290 5662
75 6769 8790
76 5636 4350
77 5761 3606
78 973 8843
79 4147 6341
80 9830 6987
81 1309 673
82 5879 4403
83 1009 7407
84 9512 1472
85 7657 2640
86 7690 7448
87 9629 3982
88 6847 1520
89 6718 1793
90 5244 1423
91 7806 9538
92 4422 5772
93 9169 3725
94 9386 8507
95 4031 7015
96 8934 5463
97 9713 3224
98 2226 8123
99 6886 5736
100 1710 8313
EOF
