NAME: tsp_uniform_n100_train_017
TYPE: TSP
DIMENSION: 100
EDGE_WEIGHT_TYPE: EUC_2D
NODE_COORD_SECTION
1 3342 8476
2 3444 7084
3 6381 7534
4 6516 6547
5 3060 3723
6 3947 4272
7 3726 9743
8 4576 456
9 7609 7482
10 1781 7274
11 5778 3112
12 3414 4903
13 7610 783
14 3798 3327
15 5643 2841
16 2060 4876
17 3516 6174
18 2893 9109
19 3044 5324
20 870 6528
21 8126 4677
22 2857 6602
23 1766 4853
24 6136 3823
25 1526 5667
26 577 2864
27 1375 9052
28 1099 6634
29 3233 3871
30 6330 5494
31 2930 1347
32 5165 9397
33 1300 6233
34 3446 1693
35 6890 5257
36 3332 5027
37 3875 5766
38 1614 2502
39 9739 9130
40 2618 8711
41 1556 1530
42 6737 8937
43 6847 3876
44 5711 7711
45 3423 4366
46 7767 9379
47 5280 8802
48 6382 8345
49 5456 900
50 7434 5188
51 5182 6665
52 9221 7668
53 9390 5685
54 1535 7189
55 9055 7098
56 1271 9785
57 4882 3602
58 9849 9106
59 5142 1554
60 2280 8237
61 8846 645
62 3196 4181
63 6089 7237
64 9738 8100
65 8793 6136
66 7608 6049
67 8581 4029
68 8201 5605
69 2048 5427
70 6086 5220
71 4466 5010
72 9384 6003
73 2848 9327
74 4021 8436
75 9430 7177
76 2024 3607
77 4775 4492
78 1361 9969
79 6846 8299
80 6429 1970
81 5575 1363
82 428 9071
83 3359 7119
84 3940 9300
85 8647 6522
86 2957 299
87 5451 8816
88 3722 6462
89 4171 327
90 637 3999
91 3267 832
92 1516 6832
93 6748 2447
94 9069 1533
95 8357 3264
96 3905 1525
97 2280 8860
98 9115 9050
99 9150 3867
100 2578 599
EOF
