NAME: tsp_uniform_n100_train_009
TYPE: TSP
DIMENSION: 100
EDGE_WEIGHT_TYPE: EUC_2D
NODE_COORD_SECTION
1 3562 2756
2 4481 9808
3 7069 9192
4 5846 1960
5 2166 2161
6 2359 2510
7 1443 3187
8 675 1265
9 8583 9090
10 623 7060
11 5719 7654
12 1388 5130
13 2489 9596
14 8840 66
15 142 4868
16 5563 1027
17 861 8630
18 7043 5568
19 1833 8244
20 6688 9513
21 4294 9457
22 253 555
23 8935 7969
24 4639 4180
25 6539 10000
26 5811 1362
27 1345 8572
28 8156 305
29 3763 894
30 3445 9236
31 903 8067
32 6420 6436
33 785 4713
34 9336 6891
35 2667 8685
36 4241 2177
37 7803 2398
38 1139 8597
39 4668 7802
40 6688 2729
41 2149 368
42 8714 7068
43 4048 9295
44 7799 9584
45 6270 1498
46 265 1127
47 7934 4198
48 8671 4912
49 807 1556
50 6789 769
51 2339 6431
52 7187 8424
53 5269 7428
54 925 4232
55 4947 7166
56 5193 8048
57 3234 5769
58 5882 829
59 3757 9083
60 4542 7330
61 8561 9578
62 9465 2220
63 1431 613
64 4884 8881
65 1193 8561
66 2382 1662
67 4839 5987
68 8681 4902
69 3611 343
70 9552 491
71 8303 8870
72 4328 782
73 1885 9480
74 9694 1096
75 2408 8346
76 2950 7164
77 3751 6957
78 4520 7004
79 631 268
80 5382 1709
81 4756 8474
82 9876 437
83 6316 6241
84 8791 2716
85 985 8609
86 1905 2644
87 662 5761
88 960 854
89 6695 6264
90 6025 6717
91 6629 9446
92 9947 9841
93 4401 4538
94 6586 3825
95 7310 1933
96 2418 6158
97 6297 479
98 9486 5949
99 4634 2820
100 9494 8552
EOF
