NAME: tsp_uniform_n100_train_019
TYPE: TSP
DIMENSION: 100
EDGE_WEIGHT_TYPE: EUC_2D
NODE_COORD_SECTION
1 3137 3378
2 8892 8858
3 9848 3460
4 1575 6230
5 9237 109
6 6940 669
7 1123 8830
8 9806 9516
9 3935 7177
10 7159 527
11 1326 5891
12 6181 6999
13 7010 3601
14 7255 4692
15 412 415
16 8404 9588
17 9365 9430
18 9072 8347
19 2365 6685
20 8792 5141
21 3035 8249
22 1885 6359
23 8614 906
24 3138 3966
25 6126 6960
26 7771 6309
27 1424 1201
28 1644 4859
29 7605 3125
30 827 7282
31 7571 7690
32 5806 8620
33 1921 9045
34 2149 9598
35 2716 6289
36 5552 7355
37 3450 5339
38 5940 4227
39 8650 8268
40 5543 118
41 4921 9959
42 1347 681
43 5790 7220
44 4192 5896
45 4357 7671
46 4791 5529
47 9600 9248
48 1200 7291
49 9750 1626
50 9463 4904
51 2566 3054
52 600 7988
53 9562 2759
54 8413 4315
55 8809 843
56 5569 8925
57 8663 8279
58 820 7008
59 5353 4154
60 5058 4547
61 1387 4148
62 3680 8529
63 2531 3816
64 1356 5075
65 5771 6091
66 9000 5154
67 570 6106
68 6730 1960
69 7916 306
70 1175 7362
71 8544 1324
72 9195 4531
73 6955 9408
74 7466 1811
75 2230 322
76 8877 5014
77 8556 6249
78 2803 3536
79 9235 1433
80 1829 780
81 3737 9573
82 9417 9583
83 1103 9728
84 7649 1697
85 2112 8204
86 1704 1252
87 2607 5986
88 9243 1903
89 1219 1146
90 3215 4514
91 6264 1685
92 2626 8729
93 3742 9055
94 733 9561
95 7441 92
96 4305 2935
97 7652 9080
98 4888 5214
99 2929 2087
100 2877 9643
EOF
