NAME: tsp_uniform_n100_train_010
TYPE: TSP
DIMENSION: 100
EDGE_WEIGHT_TYPE: EUC_2D
NODE_COORD_SECTION
1 8725 386
2 4332 9944
3 5210 1274
4 3980 5624
5 5813 2238
6 1411 9078
7 1476 1650
8 8050 4198
9 4873 5084
10 8362 1495
11 3437 2599
12 4220 5092
13 5584 8257
14 5492 5541
15 1873 2161
16 8350 950
17 6295 2316
18 1485 5548
19 7662 192
20 227 1272
21 9089 8171
22 7071 8686
23 303 7356
24 8334 2356
25 1222 7098
26 5496 7147
27 1498 6245
28 9209 7607
29 1630 9671
30 3157 9815
31 5955 591
32 901 3569
33 6224 9483
34 8656 709
35 9905 6940
36 8676 9519
37 8131 6339
38 9584 8129
39 7825 3697
40 8589 9798
41 8676 2947
42 7361 7891
43 6061 2288
44 3196 3440
45 9440 1848
46 9116 2474
47 5504 3411
48 9114 2046
49 3739 3038
50 495 9356
51 6188 1190
52 6942 1255
53 4494 9542
54 6391 7632
55 1019 7531
56 3315 9184
57 674 5843
58 5461 7945
59 8602 2166
60 6933 5711
61 1442 661
62 2078 6186
63 6383 4798
64 1798 445
65 1687 4
66 8599 9710
67 5971 8081
68 2718 6565
69 6994 4808
70 4403 284
71 6349 5296
72 286 2406
73 159 3717
74 6024 7427
75 1610 3237
76 9654 4235
77 6442 8971
78 3359 2316
79 6750 7183
80 7468 7054
81 6748 2701
82 7133 6454
83 9080 301
84 4952 9788
85 7968 131
86 7088 2147
87 7194 4172
88 1940 5875
89 411 9544
90 1749 1368
91 4999 3203
92 6343 9690
93 1737 7730
94 7820 9128
95 7267 8689
96 4303 6809
97 6402 6679
98 8449 5781
99 7188 6803
100 1732 4591
EOF
