NAME: tsp_uniform_n100_train_000
TYPE: TSP
DIMENSION: 100
EDGE_WEIGHT_TYPE: EUC_2D
NODE_COORD_SECTION
1 7500 8814
2 9701 7298
3 4638 8205
4 7589 4404
5 7907 4433
6 7859 2089
7 8180 7828
8 5845 8642
9 3733 3680
10 428 5308
11 549 3511
12 8699 3371
13 3743 5679
14 1395 3943
15 30 5490
16 3823 4003
17 4840 1919
18 4584 2832
19 5437 2748
20 580 731
21 5261 7617
22 9476 9783
23 8288 5004
24 9462 7715
25 3348 5664
26 391 8628
27 3885 883
28 2290 5370
29 7776 7748
30 8975 3367
31 2473 6931
32 8008 1672
33 9756 524
34 4362 5048
35 1356 7576
36 2350 3736
37 5884 976
38 5175 1272
39 8518 2755
40 2005 8424
41 1643 9536
42 5089 357
43 7776 8207
44 9347 7362
45 7960 4608
46 7411 1677
47 6718 3513
48 6726 15
49 52 5257
50 2247 2416
51 4813 5836
52 4769 2626
53 5934 9224
54 9495 9395
55 4399 9951
56 6607 432
57 3664 112
58 7428 575
59 5210 4635
60 4791 4404
61 702 7961
62 7871 4738
63 2629 1018
64 1445 2162
65 1513 9533
66 7642 4625
67 6755 3191
68 7133 2521
69 7441 550
70 2115 8573
71 628 9725
72 5118 3425
73 1390 7833
74 3388 3525
75 4568 1591
76 4188 2819
77 4999 246
78 4728 9328
79 6169 1882
80 9435 9042
81 6126 4266
82 5456 3907
83 3649 8795
84 9886 2843
85 7053 5077
86 6348 5810
87 5004 8902
88 8923 9562
89 2303 9552
90 2278 6478
91 7934 6021
92 1857 1155
93 4424 6032
94 6728 6524
95 6204 2347
96 1547 3503
97 1548 704
98 4570 4184
99 6359 3599
100 7959 6183
EOF
