NAME: tsp_uniform_n100_train_015
TYPE: TSP
DIMENSION: 100
EDGE_WEIGHT_TYPE: EUC_2D
NODE_COORD_SECTION
1 3674 9770
2 1903 546
3 4601 1694
4 2975 4829
5 9694 6529
6 5439 3561
7 7780 7300
8 8543 7740
9 7831 3482
10 1236 8579
11 8336 6419
12 6051 1938
13 5979 7056
14 5660 8093
15 4497 4165
16 4793 2220
17 4249 4984
18 3813 2013
19 6362 569
20 5919 1903
21 9575 1491
22 8725 8548
23 455 2695
24 9506 8386
25 1785 3792
26 6208 794
27 9998 4867
28 4398 4975
29 3570 9283
30 2366 4661
31 1411 1482
32 163 9878
33 4609 2470
34 3000 8526
35 4587 380
36 9522 9837
37 3377 257
38 475 9527
39 5362 1871
40 788 5859
41 8703 696
42 7634 7282
43 6255 1240
44 7409 4091
45 5012 2468
46 2862 759
47 9505 1018
48 5051 4675
49 1282 9823
50 7045 7863
51 1318 3119
52 2895 2806
53 771 2156
54 9304 8322
55 6345 8680
56 8778 1430
57 3406 1490
58 511 5149
59 8593 9185
60 5097 381
61 394 1442
62 7017 9749
63 6515 5640
64 155 1700
65 1765 8282
66 938 5325
67 8725 8110
68 7779 8692
69 6553 46
70 6552 3275
71 9504 6847
72 1760 4987
73 6970 5048
74 5418 2262
75 6942 3591
76 6457 3906
77 7070 2193
78 4095 3821
79 2427 6981
80 4053 2347
81 9842 5363
82 3320 4028
83 2324 7202
84 2223 3742
85 6126 7905
86 6092 4465
87 2836 36
88 8675 9347
89 7122 4257
90 2809 9915
91 5053 3250
92 3588 875
93 8295 516
94 6686 9117
95 8640 7781
96 609 6911
97 6350 2977
98 8490 4605
99 2900 2191
100 707 6280
EOF
