NAME: tsp_uniform_n100_train_001
TYPE: TSP
DIMENSION: 100
EDGE_WEIGHT_TYPE: EUC_2D
NODE_COORD_SECTION
1 585 2620
2 1235 5883
3 9627 9291
4 4621 4481
5 1448 5026
6 3241 7193
7 7535 9194
8 7130 3376
9 2136 5054
10 9342 4352
11 82 5912
12 5886 1991
13 1160 6739
14 7985 4759
15 9321 1351
16 9533 7101
17 9663 7412
18 6588 8199
19 1100 6855
20 6184 8686
21 2683 7788
22 8690 7363
23 6914 2106
24 7944 6563
25 8910 776
26 7498 5357
27 303 1989
28 1374 2567
29 702 1744
30 8184 8506
31 8404 3350
32 9357 3204
33 4360 4157
34 9440 477
35 761 264
36 5833 5376
37 3121 7033
38 648 2519
39 2857 5205
40 1767 8598
41 9273 8343
42 3267 6518
43 61 8177
44 4947 5962
45 5678 5406
46 360 5547
47 7823 9715
48 3270 4064
49 5229 1449
50 9301 2537
51 6037 4447
52 7156 7899
53 6857 8762
54 560 5168
55 4653 992
56 1807 9294
57 4049 9984
58 8266 6378
59 7394 1238
60 597 7969
61 7913 680
62 4904 1104
63 8801 6859
64 4132 8706
65 1699 8753
66 1381 4196
67 2549 1759
68 4382 7379
69 8446 2011
70 4643 4485
71 2624 5746
72 3031 5066
73 5734 7564
74 6666 9975
75 6463 8100
76 5904 2944
77 9017 2814
78 9143 5382
79 3633 4673
80 3204 3809
81 8777 1914
82 2175 7929
83 8397 2715
84 4958 6057
85 824 954
86 3732 1460
87 3615 6491
88 3313 2550
89 6739 1770
90 9577 7992
91 6317 8130
92 7900 7818
93 3214 2156
94 2095 5342
95 3658 9918
96 8024 28
97 2046 2887
98 6934 7314
99 1012 2953
100 4812 5447
EOF
