NAME: tsp_uniform_n100_train_013
TYPE: TSP
DIMENSION: 100
EDGE_WEIGHT_TYPE: EUC_2D
NODE_COORD_SECTION
1 3576 2709
2 5480 1479
3 4960 537
4 6958 1410
5 24 7690
6 7049 2855
7 6367 5713
8 1098 8099
9 2924 4728
10 288 1448
11 5531 1395
12 2810 8483
13 3093 4887
14 5954 1278
15 5187 6356
16 908 6731
17 4544 321
18 9003 9263
19 6168 8052
20 714 3851
21 4009 7268
22 6297 2766
23 4321 2524
24 3590 6097
25 6783 191
26 4363 2432
27 6592 2884
28 1378 9035
29 290 7214
30 4930 166
31 9997 1981
32 1707 860
33 9132 1026
34 7616 7932
35 9428 8645
36 4018 9344
37 9296 295
38 9476 5412
39 4071 1213
40 756 1546
41 6874 1144
42 8729 9601
43 7886 5943
44 2185 5074
45 7235 2553
46 8204 3217
47 3382 2454
48 1256 7756
49 4284 804
50 4224 5896
51 1239 4515
52 2241 252
53 8744 9055
54 4137 330
55 4698 2481
56 6175 8799
57 3633 4479
58 303 7365
59 8008 19
60 4245 5299
61 3354 8557
62 9908 8145
63 689 6390
64 3127 902
65 4898 9363
66 325 9121
67 2457 1464
68 277 120
69 9401 1979
70 5186 9320
71 7643 2808
72 4894 5258
73 8636 9007
74 8726 9965
75 6018 5140
76 9645 365
77 5845 1996
78 4149 2217
79 2641 7721
80 908 467
81 2477 5575
82 5424 8049
83 6502 9758
84 1928 5170
85 3525 9677
86 3017 3846
87 6712 8877
88 4012 9752
89 3179 4109
90 1573 676
91 3527 3770
92 6432 2916
93 532 508
94 395 3410
95 7945 7576
96 2560 2706
97 4785 9915
98 7389 2452
99 4969 5050
100 6511 8282
EOF
