NAME: tsp_uniform_n100_train_005
TYPE: TSP
DIMENSION: 100
EDGE_WEIGHT_TYPE: EUC_2D
NODE_COORD_SECTION
1 9434 5987
2 9951 1905
3 2207 1510
4 7056 6604
5 1740 4430
6 642 1296
7 547 1324
8 6607 4163
9 5649 9033
10 394 1941
11 8100 8457
12 260 4549
13 8319 4727
14 2170 6279
15 6902 7652
16 7957 8996
17 6348 7889
18 9765 9373
19 1874 4471
20 6348 7480
21 7120 1562
22 3022 1757
23 6601 3175
24 384 9453
25 1898 3644
26 401 2943
27 4975 4870
28 6613 8610
29 820 5370
30 6077 9423
31 1020 8101
32 8922 4750
33 3540 6295
34 3461 5376
35 5926 2304
36 1396 5477
37 8472 6566
38 986 2735
39 5935 4356
40 8827 8182
41 1106 2605
42 7106 9304
43 8273 1356
44 2279 6458
45 1538 1981
46 8947 5003
47 1473 3959
48 3213 4997
49 4341 90
50 6946 256
51 5734 1994
52 6217 3640
53 6307 7304
54 5552 3414
55 5395 279
56 1672 8182
57 8007 5060
58 1675 3635
59 5244 9927
60 8606 22
61 6724 7842
62 3999 1023
63 1534 9535
64 3967 9247
65 8410 156
66 9207 1696
67 7566 8977
68 1348 9020
69 8712 6494
70 6068 1205
71 3333 7391
72 583 552
73 6109 5544
74 4571 4204
75 4130 126
76 1154 3314
77 5234 7348
78 2313 875
79 2305 2341
80 2451 6068
81 9780 9436
82 5146 8824
83 4275 119
84 5372 8852
85 4812 8945
86 6916 8994
87 217 4908
88 1124 3675
89 3452 4270
90 170 4878
91 2150 9968
92 3246 220
93 4572 9707
94 5511 7783
95 1846 6618
96 1115 7073
97 4853 6242
98 292 3512
99 4886 9674
100 2868 1009
EOF
