NAME: tsp_uniform_n100_train_014
TYPE: TSP
DIMENSION: 100
EDGE_WEIGHT_TYPE: EUC_2D
NODE_COORD_SECTION
1 7808 9620
2 7277 1996
3 8453 4475
4 2489 7498
5 6956 3539
6 1522 8847
7 5567 6977
8 4908 3564
9 7523 2575
10 1056 9816
11 7211 3877
12 8354 2378
13 6930 1069
14 6055 9067
15 3899 4889
16 7641 3253
17 7783 9170
18 9434 8892
19 1939 979
20 2045 2522
21 2830 7612
22 51 4697
23 6747 1981
24 7098 8612
25 2875 9569
26 938 633
27 461 8570
28 609 6037
29 9452 805
30 2258 4193
31 4079 9894
32 3875 2870
33 8429 1466
34 8238 2182
35 7237 903
36 6623 842
37 6444 1429
38 5894 3112
39 6651 623
40 3264 8988
41 6282 9472
42 22 1458
43 1582 9736
44 9057 2895
45 8438 7194
46 7938 5144
47 4237 3471
48 5049 4408
49 9090 2946
50 9682 8163
51 3813 9907
52 2764 9500
53 3746 5204
54 5843 3642
55 7398 2063
56 4760 8408
57 4414 6941
58 6761 526
59 6337 8765
60 8120 8368
61 6550 2740
62 8877 6916
63 64 8408
64 6275 5000
65 6975 5064
66 1802 2710
67 4695 6415
68 955 8216
69 8333 5042
70 63 1621
71 6699 2322
72 7424 3071
73 4601 9114
74 3372 4911
75 5603 6913
76 7926 5572
77 225 1667
78 4835 9713
79 9077 8644
80 8338 4915
81 5606 59
82 4790 4067
83 3009 1584
84 1024 6904
85 5668 5995
86 7373 1011
87 2422 4347
88 2508 6549
89 1917 5974
90 8328 2069
91 5800 3191
92 5316 4310
93 5050 4172
94 4425 9471
95 4489 7686
96 2725 9777
97 2165 8137
98 8109 4227
99 4773 3991
100 4155 70
EOF
