NAME: tsp_uniform_n100_train_003
TYPE: TSP
DIMENSION: 100
EDGE_WEIGHT_TYPE: EUC_2D
NODE_COORD_SECTION
1 3737 201
2 6301 6687
3 5997 2749
4 1168 2227
5 2463 7696
6 2513 3871
7 6787 7309
8 746 7266
9 5951 3895
10 3800 8109
11 2301 9305
12 7803 9354
13 5272 6175
14 2796 2294
15 7363 9830
16 2372 627
17 789 7959
18 6760 695
19 4052 8427
20 5015 9188
21 364 1076
22 9961 3366
23 7755 1451
24 474 3956
25 3912 6766
26 1199 425
27 1600 6803
28 4064 5733
29 8788 5582
30 3564 7637
31 3428 8637
32 6640 9908
33 3965 9021
34 3010 2242
35 7983 8738
36 2383 23
37 742 3414
38 7161 8611
39 889 8308
40 8014 7706
41 826 9326
42 2936 3872
43 7844 5507
44 3249 5235
45 2546 5910
46 993 5686
47 8809 2976
48 9554 4723
49 6402 1398
50 9579 9127
51 2941 6256
52 4054 9958
53 2506 9440
54 2733 4561
55 7475 2564
56 6534 6602
57 5067 4925
58 3193 2971
59 6329 8112
60 1950 9560
61 2019 644
62 3183 9556
63 5284 8
64 8748 9612
65 8993 1804
66 7491 3532
67 4472 6240
68 1481 5364
69 6100 7836
70 8098 5558
71 6890 3974
72 130 3542
73 1642 4124
74 8125 3628
75 6362 6810
76 5877 1365
77 152 1506
78 4931 7320
79 1306 2527
80 7173 2006
81 986 1799
82 6238 706
83 2204 8854
84 5747 8366
85 9496 6141
86 8314 6672
87 6211 1328
88 2479 7844
89 413 9960
90 6222 474
91 5940 1023
92 5556 9692
93 4395 10
94 9288 9058
95 5958 12
96 1114 7102
97 4938 2152
98 7026 9084
99 4678 8156
100 939 2557
EOF
