NAME: tsp_uniform_n100_train_002
TYPE: TSP
DIMENSION: 100
EDGE_WEIGHT_TYPE: EUC_2D
NODE_COORD_SECTION
1 5102 4029
2 2395 3031
3 8984 9478
4 3001 9586
5 5382 9379
6 5047 7650
7 5818 174
8 3202 106
9 5131 1761
10 4021 9359
11 177 6126
12 6388 6309
13 2402 4951
14 6287 3062
15 2015 8618
16 5894 25
17 6244 3301
18 5403 1703
19 9869 2956
20 5355 2010
21 101 4741
22 3101 4484
23 9952 9101
24 3705 5617
25 7409 3085
26 6390 7396
27 2419 8391
28 5884 4119
29 64 3595
30 5117 5441
31 6829 4398
32 3559 3586
33 3519 2302
34 2598 8716
35 4968 1235
36 177 8413
37 5139 8854
38 6830 1055
39 7739 9371
40 1082 7903
41 8447 674
42 6411 9839
43 3265 1142
44 4990 8340
45 8558 1499
46 8021 7384
47 2349 1780
48 4638 1737
49 2216 8243
50 6030 6913
51 5352 8228
52 8569 1813
53 7479 4596
54 6400 8001
55 3739 3223
56 6631 2491
57 2474 7551
58 5208 9351
59 1758 544
60 9457 9916
61 3115 7239
62 158 5190
63 3586 4755
64 8214 5781
65 1395 5379
66 8623 3420
67 1327 3868
68 3707 7708
69 421 2787
70 8252 9456
71 6642 9634
72 5381 4057
73 6941 1556
74 7829 1591
75 8350 1851
76 3757 8404
77 3977 1451
78 7202 8928
79 1933 3534
80 2574 3347
81 5372 3355
82 7526 7587
83 8086 5441
84 4883 6516
85 114 5908
86 9783 657
87 110 7698
88 1568 8307
89 3426 6338
90 3482 5141
91 7504 6055
92 6810 3618
93 3625 598
94 8006 1292
95 3348 652
96 9589 1632
97 9406 3390
98 4578 1598
99 3183 9313
100 8501 7631
EOF
