NAME: tsp_uniform_n100_train_012
TYPE: TSP
DIMENSION: 100
EDGE_WEIGHT_TYPE: EUC_2D
NODE_COORD_SECTION
1 387 686
2 1590 8171
3 6489 1542
4 3545 8082
5 2537 4692
6 3015 7709
7 2461 3769
8 2263 3772
9 1504 9788
10 4783 550
11 9612 5767
12 7245 7596
13 1908 4734
14 6946 1521
15 6507 2754
16 1501 6847
17 861 1156
18 2477 9140
19 3616 8354
20 2725 3493
21 1233 4472
22 2570 3070
23 64 4039
24 2579 3137
25 5915 9117
26 5677 2909
27 8987 3605
28 7327 7126
29 1844 555
30 1342 232
31 6475 7236
32 9451 9566
33 7303 9358
34 4577 4027
35 6462 8086
36 5268 4515
37 6665 8641
38 6288 3321
39 4784 338
40 3041 6122
41 4672 7226
42 4412 6528
43 6476 933
44 1603 7331
45 989 1876
46 5240 7637
47 5281 9121
48 1465 6774
49 7105 7794
50 5672 3721
51 3937 7087
52 9975 8318
53 2330 1422
54 6770 8401
55 9019 1720
56 4791 4722
57 8625 9011
58 9618 5804
59 9571 9893
60 4230 1548
61 296 7190
62 874 9116
63 3388 9957
64 2202 554
65 3374 8921
66 8962 2530
67 6034 3797
68 2447 1511
69 7869 29
70 1871 2309
71 6153 4409
72 8226 5645
73 2330 9977
74 2845 5037
75 694 3903
76 4501 9743
77 6206 2117
78 4319 9531
79 46 1637
80 9272 3413
81 9334 6973
82 4994 3180
83 4585 9968
84 7656 6104
85 8500 6652
86 2292 8811
87 4993 1421
88 1269 1888
89 2150 2848
90 3755 2209
91 8166 6965
92 1598 7121
93 6530 992
94 8500 5934
95 8926 2250
96 5156 1502
97 3240 3267
98 807 3555
99 2226 6500
100 7801 5661
EOF
