NAME: tsp_uniform_n100_train_006
TYPE: TSP
DIMENSION: 100
EDGE_WEIGHT_TYPE: EUC_2D
NODE_COORD_SECTION
1 2260 6769
2 3173 7490
3 7048 9471
4 3463 4610
5 8691 9362
6 4143 6514
7 7440 7307
8 6139 9788
9 2832 9503
10 5017 1464
11 6927 5663
12 7925 9069
13 8969 6966
14 4237 571
15 9579 8826
16 8512 2330
17 3500 3777
18 4184 5269
19 4702 5814
20 9980 5042
21 1291 9221
22 9085 7298
23 3598 3521
24 2752 4642
25 4190 9238
26 1035 145
27 956 5850
28 7019 3620
29 5922 293
30 2718 2788
31 3791 6606
32 6605 1680
33 4519 3162
34 7314 9413
35 5979 555
36 4270 828
37 6816 7104
38 9125 7821
39 1940 3490
40 90 816
41 8503 5873
42 8047 1120
43 3656 3027
44 4959 7545
45 7625 7901
46 7834 7035
47 913 2057
48 2242 2070
49 9194 4002
50 7832 2653
51 9860 2908
52 3156 2639
53 2334 9575
54 6055 2385
55 1113 809
56 1443 8265
57 2288 3619
58 7955 337
59 3104 7625
60 4448 6836
61 2593 1405
62 1836 9620
63 2510 8237
64 2277 1161
65 7134 7733
66 3142 3919
67 3757 9412
68 1174 6879
69 641 1366
70 5897 9289
71 820 5236
72 947 8349
73 8367 9556
74 2831 3336
75 7477 2012
76 2084 1571
77 5576 4781
78 4352 8397
79 7066 5489
80 2901 6631
81 7304 1077
82 131 8176
83 9477 1533
84 6174 3668
85 5139 3861
86 6653 9957
87 1172 1598
88 1849 6856
89 9670 7132
90 1540 3571
91 4948 4607
92 3260 2898
93 4230 4098
94 9855 5850
95 8267 7163
96 3762 1906
97 2069 9881
98 5321 8104
99 3430 175
100 5887 8338
EOF
