NAME: tsp_uniform_n100_train_011
TYPE: TSP
DIMENSION: 100
EDGE_WEIGHT_TYPE: EUC_2D
NODE_COORD_SECTION
1 4300 6614
2 1424 7547
3 7723 5814
4 2547 1780
5 8538 8809
6 5728 3545
7 4929 9427
8 781 8755
9 2966 6122
10 5969 4037
11 9936 3666
12 932 1463
13 5790 1298
14 877 2879
15 7877 7417
16 8846 8264
17 7178 1018
18 6683 9935
19 6033 295
20 5477 6850
21 59 644
22 302 6649
23 8837 1930
24 5395 8483
25 3555 1081
26 3722 5343
27 4489 369
28 3365 4139
29 2343 3249
30 1897 282
31 5202 4298
32 4354 4973
33 5583 838
34 8824 2691
35 2328 688
36 7842 1807
37 2382 1937
38 4065 6941
39 9541 3219
40 9811 4562
41 2120 4179
42 5920 754
43 1810 8568
44 3009 9786
45 9223 8223
46 6564 6527
47 4182 9231
48 5446 8327
49 9081 1485
50 7538 3249
51 9672 4971
52 7624 8923
53 3448 1617
54 7093 9262
55 5409 2538
56 5110 6482
57 7584 2110
58 7625 1098
59 8267 6590
60 7284 139
61 8762 5473
62 4336 9540
63 6820 1435
64 3315 1211
65 4167 7126
66 4877 9025
67 3171 3561
68 3250 8174
69 6620 3521
70 4036 7826
71 1466 9860
72 1589 4579
73 6895 9943
74 7011 129
75 6597 8043
76 5639 9850
77 4597 4488
78 2234 3965
79 9676 2280
80 4742 9540
81 6966 1338
82 6998 9900
83 9431 4980
84 2705 1682
85 6898 8067
86 3378 3745
87 946 8382
88 9984 2825
89 6154 1178
90 2894 3232
91 3720 9589
92 5265 4506
93 9628 3016
94 4903 3217
95 347 3821
96 3049 7565
97 4193 381
98 2567 2647
99 6298 764
100 8782 2745
EOF
