NAME: tsp_uniform_n100_train_018
TYPE: TSP
DIMENSION: 100
EDGE_WEIGHT_TYPE: EUC_2D
NODE_COORD_SECTION
1 5813 4160
2 5375 9276
3 4753 1873
4 4198 543
5 3678 5639
6 1435 4303
7 6460 6014
8 346 2539
9 4804 5530
10 854 9279
11 3132 7741
12 7829 3933
13 7550 9967
14 3096 7592
15 6300 2260
16 9732 3653
17 9949 2940
18 8814 2765
19 155 1991
20 3617 3727
21 7137 739
22 8961 4962
23 4852 672
24 5871 169
25 301 9519
26 120 6835
27 4066 7372
28 7474 7752
29 3167 6479
30 9779 5118
31 2708 9586
32 6903 9882
33 3489 4519
34 5869 265
35 9642 5042
36 3589 5872
37 3212 9641
38 7157 3489
39 246 9313
40 504 7423
41 56 5771
42 7611 2260
43 3342 9590
44 648 8974
45 2566 4393
46 5409 1276
47 6844 5813
48 7446 3093
49 1597 3155
50 6631 4009
51 9780 3512
52 9208 104
53 4132 2057
54 8588 4752
55 3432 1575
56 7767 8718
57 3194 9196
58 458 8937
59 5784 2537
60 8166 5361
61 9738 9186
62 9278 5592
63 1405 1623
64 3932 2672
65 185 4696
66 6511 1672
67 2639 6444
68 2059 7547
69 445 1919
70 6821 1376
71 9638 3286
72 7842 101
73 4419 1627
74 1445 9776
75 9015 9759
76 3205 743
77 5923 1643
78 296 4461
79 598 7608
80 5692 529
81 1268 712
82 4851 7970
83 4614 2984
84 244 7760
85 4136 4125
86 5771 2008
87 9693 9388
88 6649 345
89 403 4079
90 658 6145
91 2783 3489
92 6929 4008
93 9966 659
94 1716 7381
95 7482 2900
96 2458 1099
97 9776 8732
98 5633 8120
99 7064 3070
100 2630 36
EOF
