NAME: tsp_uniform_n50_b_train_016
TYPE: TSP
DIMENSION: 50
EDGE_WEIGHT_TYPE: EUC_2D
NODE_COORD_SECTION
1 4178 7180
2 4813 9027
3 2609 9623
4 5720 8206
5 9641 3576
6 7946 9947
7 7812 5608
8 8185 5128
9 3479 839
10 3171 9222
11 97 3168
12 2566 139
13 2487 8602
14 1104 5787
15 534 4176
16 2913 2352
17 5781 6397
18 1344 2507
19 7426 2951
20 6930 4008
21 3230 628
22 6202 755
23 3333 476
24 4646 3107
25 3397 1781
26 881 1376
27 6962 4488
28 6717 6362
29 9906 4123
30 8434 1639
31 9950 3113
32 4930 3515
33 7453 8774
34 9889 4555
35 6519 1413
36 9005 5838
37 5870 9848
38 9409 5769
39 6788 817
40 6147 5205
41 1061 2645
42 6316 1511
43 1663 6975
44 2681 1955
45 2771 8847
46 6273 5631
47 6454 6286
48 4017 6409
49 9166 2533
50 8334 196
EOF
