NAME: tsp_uniform_n50_b_train_010
TYPE: TSP
DIMENSION: 50
EDGE_WEIGHT_TYPE: EUC_2D
NODE_COORD_SECTION
1 6048 4194
2 4738 5952
3 6367 8670
4 5734 444
5 8397 755
6 7227 351
7 343 9186
8 8580 2835
9 3409 2403
10 9350 4169
11 1288 6167
12 2785 3787
13 830 224
14 1424 5597
15 7912 8822
16 351 342
17 7135 6070
18 3871 7849
19 9405 4367
20 2850 1481
21 8995 9862
22 666 1146
23 2437 2157
24 938 6404
25 9525 810
26 6162 5423
27 7818 4354
28 7718 6942
29 4453 5366
30 3387 1804
31 26 9199
32 2617 8146
33 7041 3170
34 3817 6251
35 3401 2260
36 951 7822
37 3340 7891
38 6326 5613
39 7581 978
40 7159 7875
41 63 9456
42 6082 6503
43 1184 3902
44 2930 6000
45 1237 2150
46 6362 1218
47 6317 6058
48 9007 7821
49 2140 9233
50 2979 4696
EOF
