NAME: tsp_uniform_n50_b_train_004
TYPE: TSP
DIMENSION: 50
EDGE_WEIGHT_TYPE: EUC_2D
NODE_COORD_SECTION
1 3660 6766
2 6180 5015
3 6174 4044
4 8412 8276
5 2323 1526
6 4396 3958
7 1831 7498
8 8092 3136
9 1652 5299
10 5055 411
11 7846 164
12 2972 269
13 6955 2216
14 5655 6792
15 2544 5130
16 6061 5353
17 6080 5278
18 1850 7392
19 3307 9927
20 94 7968
21 8497 5155
22 5429 948
23 5405 3150
24 104 3094
25 3581 9266
26 3304 7026
27 5086 3177
28 124 8368
29 8790 5154
30 8543 9847
31 8159 3640
32 2921 5180
33 2052 5457
34 9977 8100
35 1107 6584
36 6048 1321
37 1683 3031
38 3894 7001
39 943 7217
40 1425 9026
41 1124 5975
42 4490 4518
43 384 6326
44 446 3250
45 6948 9174
46 2840 2601
47 3780 9599
48 3196 6790
49 2292 6747
50 8674 2745
EOF
