NAME: tsp_uniform_n50_b_train_005
TYPE: TSP
DIMENSION: 50
EDGE_WEIGHT_TYPE: EUC_2D
NODE_COORD_SECTION
1 86 2290
2 6339 7037
3 3446 7218
4 1526 971
5 9534 7172
6 6507 366
7 2121 9149
8 8823 4252
9 2696 2317
10 1797 9665
11 2031 2186
12 2467 4389
13 6559 199
14 1533 927
15 264 321
16 9286 2957
17 1936 7388
18 2615 4308
19 484 6838
20 5524 9706
21 5681 247
22 4726 1809
23 8260 3845
24 3130 6718
25 9489 4911
26 4444 8295
27 3191 7375
28 9646 8840
29 748 1548
30 8264 2570
31 3053 6584
32 5249 7027
33 4364 3781
34 1500 8608
35 4387 9454
36 2355 7780
37 3166 3770
38 4601 124
39 2182 2055
40 788 2932
41 1813 9611
42 7505 7045
43 1301 5497
44 135 7885
45 9214 5438
46 7234 8161
47 182 5663
48 7564 9766
49 4396 5435
50 8546 8731
EOF
