NAME: tsp_uniform_n50_b_train_001
TYPE: TSP
DIMENSION: 50
EDGE_WEIGHT_TYPE: EUC_2D
NODE_COORD_SECTION
1 5251 9552
2 9578 424
3 6968 8078
4 1426 8801
5 8135 6363
6 1363 6856
7 4839 2044
8 4900 3921
9 4687 131
10 4823 92
11 6028 3794
12 180 1488
13 4308 3945
14 5791 3677
15 7637 877
16 5425 6991
17 144 7444
18 9363 4751
19 5703 7582
20 4221 4883
21 5690 9839
22 9839 9546
23 7007 6961
24 3947 2462
25 1563 4061
26 2676 9273
27 2472 6563
28 3687 8732
29 1339 7529
30 6742 2062
31 3342 6897
32 4808 9182
33 8253 3125
34 2024 6988
35 7581 1619
36 3328 2392
37 7147 2394
38 9070 1974
39 4763 6489
40 4644 5922
41 5174 9455
42 9137 9963
43 8170 4182
44 6529 5438
45 4077 8806
46 880 1983
47 4885 9666
48 3235 5153
49 2361 6874
50 5996 3394
EOF
