NAME: tsp_uniform_n50_b_train_014
TYPE: TSP
DIMENSION: 50
EDGE_WEIGHT_TYPE: EUC_2D
NODE_COORD_SECTION
1 6688 3954
2 3109 5245
3 7254 9805
4 6276 6810
5 2020 7349
6 5443 1045
7 343 5662
8 2941 309
9 7852 3499
10 3601 3903
11 3794 8460
12 2992 5455
13 7143 5034
14 6576 4218
15 9294 5457
16 2275 3773
17 5039 866
18 7890 3757
19 543 3065
20 7837 6915
21 9850 3060
22 9997 3120
23 3880 1414
24 6546 2023
25 8798 2587
26 564 3292
27 27 8783
28 4532 2291
29 1143 6675
30 4760 1292
31 4687 505
32 1663 9877
33 5871 5460
34 7725 9568
35 7238 8385
36 7401 2094
37 7247 3894
38 1346 712
39 5585 9889
40 3791 6909
41 1037 6467
42 5364 7419
43 4019 5491
44 6476 7775
45 3995 9823
46 668 657
47 9942 6470
48 1214 6487
49 8770 1041
50 5992 2103
EOF
