NAME: tsp_uniform_n50_b_train_000
TYPE: TSP
DIMENSION: 50
EDGE_WEIGHT_TYPE: EUC_2D
NODE_COORD_SECTION
1 1960 1553
2 6785 9781
3 7159 244
4 9045 5977
5 7094 5673
6 9040 7082
7 7899 304
8 4451 5767
9 503 488
10 8560 7921
11 3957 9832
12 1010 2647
13 469 9770
14 595 931
15 9756 6821
16 568 3513
17 2713 8865
18 5675 9772
19 9863 6816
20 3370 309
21 9536 3132
22 4451 2279
23 6090 7811
24 2071 8394
25 2501 1193
26 4260 5598
27 5862 3383
28 7096 1178
29 1652 3611
30 786 2026
31 879 9396
32 4401 7403
33 314 4312
34 9464 3057
35 7404 6114
36 5985 7745
37 6122 7403
38 8519 6640
39 3938 2492
40 8414 8283
41 5079 7655
42 3629 4180
43 7892 28
44 5696 1022
45 3224 8683
46 1260 236
47 9216 7580
48 9454 1322
49 1560 7078
50 5804 7263
EOF
