NAME: tsp_uniform_n50_b_train_003
TYPE: TSP
DIMENSION: 50
EDGE_WEIGHT_TYPE: EUC_2D
NODE_COORD_SECTION
1 5640 269
2 5318 9880
3 4847 4620
4 8219 6838
5 6314 7340
6 6895 9265
7 4740 726
8 3445 129
9 81 3187
10 370 9840
11 3888 3069
12 4161 3328
13 4480 9857
14 765 2385
15 342 8460
16 8616 4444
17 6968 6582
18 5656 5133
19 3265 6806
20 8963 9378
21 9544 8365
22 2565 3096
23 4812 918
24 4232 8690
25 2293 7482
26 1685 7641
27 6724 1886
28 6484 6862
29 9498 4972
30 1741 3506
31 431 849
32 2921 854
33 200 1218
34 8935 5502
35 2771 6580
36 5734 857
37 8124 6443
38 6608 478
39 4152 1771
40 2647 3946
41 1524 1527
42 2057 8296
43 2872 9461
44 6866 8507
45 2434 3533
46 6035 7935
47 4728 7760
48 6089 4135
49 2693 4272
50 3591 6859
EOF
