NAME: tsp_uniform_n50_b_train_015
TYPE: TSP
DIMENSION: 50
EDGE_WEIGHT_TYPE: EUC_2D
NODE_COORD_SECTION
1 4000 9944
2 7321 7766
3 1074 2223
4 3551 1047
5 664 9845
6 5494 8739
7 2310 6697
8 2585 1959
9 2077 6861
10 2383 8606
11 6905 983
12 5621 9960
13 3688 5171
14 1510 4495
15 6423 4147
16 2153 257
17 7384 1530
18 9282 269
19 9500 1590
20 6949 3558
21 2465 5804
22 7532 2844
23 1084 5714
24 8976 6581
25 2605 4588
26 9080 9515
27 6788 7228
28 8857 8088
29 1982 8377
30 4622 3918
31 4819 9451
32 7876 7962
33 4897 8488
34 6892 5317
35 9958 6900
36 7749 6347
37 5215 7480
38 4763 836
39 8900 9294
40 533 2480
41 6883 7623
42 9255 6806
43 3047 8843
44 8726 1459
45 1312 9878
46 4971 5459
47 6219 5535
48 1791 5727
49 6667 1305
50 8270 2652
EOF
