NAME: tsp_uniform_n50_b_train_007
TYPE: TSP
DIMENSION: 50
EDGE_WEIGHT_TYPE: EUC_2D
NODE_COORD_SECTION
1 427 3184
2 2933 1379
3 5936 6790
4 5784 213
5 3183 1899
6 3603 4325
7 9815 7292
8 14 8171
9 4120 2037
10 8752 8140
11 1834 4409
12 9246 6055
13 2885 4966
14 2563 2276
15 5765 5492
16 9997 7366
17 8162 9485
18 2400 2419
19 2744 8401
20 8244 1354
21 2630 590
22 9079 4141
23 4293 6882
24 5124 8708
25 1158 6627
26 6082 2715
27 6733 6343
28 4598 9147
29 7086 3340
30 7727 4245
31 7932 5044
32 1143 4802
33 3810 8256
34 9878 7508
35 8007 95
36 2885 1078
37 987 3779
38 7854 3422
39 2820 8136
40 7230 8945
41 623 4033
42 3563 1010
43 7175 8213
44 3751 5695
45 3499 8302
46 9748 1641
47 2998 3984
48 1606 5544
49 329 5676
50 2891 1453
EOF
