NAME: tsp_uniform_n50_b_train_013
TYPE: TSP
DIMENSION: 50
EDGE_WEIGHT_TYPE: EUC_2D
NODE_COORD_SECTION
1 1573 833
2 6415 5870
3 7833 7123
4 7460 6914
5 317 2443
6 537 1546
7 44 408
8 2281 873
9 5369 9196
10 8691 1195
11 1734 9417
12 6985 4033
13 7400 9715
14 5164 376
15 3562 806
16 8400 442
17 6057 703
18 2187 8078
19 4522 4344
20 3729 8671
21 8299 3224
22 7489 7614
23 8973 7369
24 7095 5341
25 7935 9287
26 6507 9887
27 1396 1403
28 3517 2420
29 1815 7342
30 3977 8308
31 6538 9853
32 4560 3116
33 3567 9959
34 7728 3627
35 7524 8123
36 1803 9152
37 9633 4467
38 2305 7968
39 1273 6918
40 1927 1658
41 5237 2006
42 1152 4056
43 8575 8938
44 502 4487
45 1197 2474
46 5385 321
47 9482 8419
48 5917 6890
49 7537 9840
50 17 6343
EOF
