NAME: tsp_uniform_n50_b_train_011
TYPE: TSP
DIMENSION: 50
EDGE_WEIGHT_TYPE: EUC_2D
NODE_COORD_SECTION
1 3433 607
2 6582 3976
3 1314 4307
4 5339 3877
5 943 6984
6 6742 4339
7 7192 6586
8 7836 702
9 37 875
10 4608 7965
11 9674 1623
12 1595 9881
13 2607 6126
14 6049 5092
15 3996 3677
16 5264 194
17 7856 5894
18 2135 2438
19 4646 2625
20 1619 2861
21 7633 5831
22 4285 5810
23 5655 5754
24 1219 9450
25 5806 2911
26 8607 4380
27 7770 8798
28 5771 2743
29 2300 6325
30 2453 313
31 6227 9195
32 9931 2697
33 7521 7651
34 9812 2297
35 8427 7158
36 6400 229
37 5414 7432
38 2601 5257
39 1338 9186
40 7853 7758
41 9232 2939
42 1241 2581
43 3248 5800
44 1811 3405
45 4935 3172
46 4932 2886
47 7176 5816
48 7794 1814
49 2363 1041
50 501 2853
EOF
