NAME: tsp_uniform_n50_b_train_018
TYPE: TSP
DIMENSION: 50
EDGE_WEIGHT_TYPE: EUC_2D
NODE_COORD_SECTION
1 8652 2513
2 1189 3696
3 8578 1981
4 5728 2813
5 6135 7158
6 2178 5690
7 4581 9337
8 8082 4864
9 7641 5503
10 2312 2822
11 3474 2743
12 1007 3435
13 79 7345
14 6974 1369
15 8930 1281
16 1774 2817
17 6934 1052
18 7312 4848
19 3962 9832
20 8913 4712
21 2668 1031
22 7923 8955
23 8442 5984
24 61 9822
25 4141 3321
26 4887 1039
27 5451 7
28 7866 6935
29 6424 9504
30 2907 6917
31 1607 3221
32 3679 584
33 7994 6461
34 9456 7329
35 7233 7443
36 4710 302
37 370 402
38 3462 412
39 3122 8028
40 4766 123
41 8776 1484
42 611 19
43 8327 2961
44 4411 2781
45 2714 5021
46 5984 3011
47 969 920
48 8773 5924
49 7104 8506
50 793 9084
EOF
