NAME: tsp_uniform_n50_b_train_006
TYPE: TSP
DIMENSION: 50
EDGE_WEIGHT_TYPE: EUC_2D
NODE_COORD_SECTION
1 6898 1628
2 9101 9450
3 2996 6286
4 5329 3461
5 915 6016
6 3670 7075
7 7791 3370
8 3976 577
9 9232 2828
10 4480 3551
11 3745 793
12 5356 1214
13 399 5861
14 5905 1750
15 9371 2867
16 5 8802
17 691 1295
18 2986 5979
19 1718 3953
20 2877 6484
21 3400 3165
22 1456 9628
23 4679 5523
24 7267 7598
25 6333 2056
26 8612 428
27 3057 2393
28 7863 7556
29 1249 3041
30 7073 3199
31 9943 1927
32 3513 3850
33 9821 9857
34 2667 6536
35 7459 8558
36 785 590
37 7491 8477
38 8294 408
39 1161 5777
40 1172 3266
41 9706 1565
42 7985 5397
43 9366 1783
44 9540 2802
45 8309 4438
46 3513 3556
47 428 5212
48 47 8208
49 3480 7824
50 7535 3811
EOF
