NAME: tsp_uniform_n50_b_train_019
TYPE: TSP
DIMENSION: 50
EDGE_WEIGHT_TYPE: EUC_2D
NODE_COORD_SECTION
1 5413 2185
2 4622 1439
3 6896 773
4 5794 153
5 8044 9509
6 9840 7602
7 3779 841
8 3182 8121
9 2859 5405
10 5623 8194
11 2565 8732
12 6873 4939
13 8901 9895
14 3731 3610
15 1505 7523
16 7161 4649
17 6163 6423
18 8867 3660
19 4509 9884
20 7187 4988
21 8335 7015
22 5160 9912
23 8263 5632
24 5012 4497
25 4126 9539
26 7850 7336
27 8325 2986
28 6087 8654
29 5890 2685
30 2878 3330
31 9256 6653
32 6145 5922
33 4499 8774
34 9434 1534
35 1300 5209
36 1279 3618
37 7383 9676
38 8796 4590
39 1969 7497
40 7106 2576
41 336 9062
42 7009 9782
43 2999 4187
44 7843 3336
45 7225 9318
46 2693 236
47 5008 3439
48 6617 3174
49 5817 5299
50 6473 7468
EOF
