NAME: tsp_uniform_n50_b_train_017
TYPE: TSP
DIMENSION: 50
EDGE_WEIGHT_TYPE: EUC_2D
NODE_COORD_SECTION
1 378 604
2 409 9192
3 7648 9417
4 421 2152
5 934 2429
6 7800 7205
7 3643 3720
8 8373 2109
9 8838 2663
10 7052 4974
11 3351 1745
12 3752 8633
13 759 7214
14 878 3870
15 4484 7896
16 7087 3696
17 5603 5451
18 9824 4469
19 44 9883
20 580 7636
21 4315 6031
22 6043 8624
23 313 7228
24 3562 8814
25 1281 3119
26 7040 7809
27 2160 936
28 3156 4510
29 9000 3927
30 3329 1466
31 7137 2848
32 1571 1444
33 8822 7117
34 6961 4010
35 4048 5192
36 2546 1441
37 5978 9671
38 762 4951
39 3647 2227
40 9411 9909
41 1132 7797
42 1116 1180
43 8163 5592
44 6817 4889
45 1533 2625
46 5726 8653
47 2964 2795
48 7297 7122
49 6567 3213
50 7737 5066
EOF
