NAME: tsp_uniform_n50_b_train_012
TYPE: TSP
DIMENSION: 50
EDGE_WEIGHT_TYPE: EUC_2D
NODE_COORD_SECTION
1 147 5357
2 2171 9584
3 8779 6391
4 7974 8267
5 1377 6529
6 4784 9766
7 3639 9980
8 3143 3123
9 7264 7759
10 9941 5842
11 3531 8769
12 1084 4976
13 220 142
14 2091 3095
15 9058 5296
16 5499 7316
17 7328 4146
18 7997 4268
19 663 5898
20 9467 1962
21 7612 8237
22 238 6023
23 6915 8318
24 6914 9311
25 5481 9064
26 9106 6904
27 7245 1942
28 9852 6785
29 9635 4230
30 1037 5086
31 6712 2351
32 7647 1000
33 3475 3241
34 4691 9042
35 176 6087
36 6355 7916
37 3288 5440
38 7878 6192
39 8772 3391
40 8931 1044
41 3965 6283
42 7839 2692
43 3193 5861
44 3440 4164
45 2326 6462
46 8038 1293
47 5920 2398
48 2651 5462
49 1470 6053
50 7683 1675
EOF
