NAME: tsp_uniform_n50_b_train_008
TYPE: TSP
DIMENSION: 50
EDGE_WEIGHT_TYPE: EUC_2D
NODE_COORD_SECTION
1 5713 4369
2 9915 3651
3 1681 8231
4 9043 1095
5 49 1414
6 9574 9298
7 9343 8773
8 9019 6571
9 2962 8008
10 1596 6954
11 5164 1874
12 9750 8611
13 2370 9643
14 7004 9577
15 9488 246
16 700 59
17 7332 3024
18 7682 9601
19 4225 6876
20 763 4432
21 3946 679
22 3700 6365
23 3327 2559
24 6695 172
25 5697 8267
26 109 8127
27 2200 3349
28 3771 8063
29 3728 1737
30 9710 5639
31 6370 8377
32 2679 7340
33 4225 9688
34 5437 5143
35 6918 155
36 7890 3582
37 8727 863
38 3181 4615
39 3948 1953
40 2594 9074
41 5736 4905
42 966 2044
43 8584 121
44 4429 1463
45 6198 3642
46 7889 9499
47 3941 132
48 3667 8508
49 546 1439
50 4727 1535
EOF
