NAME: tsp_uniform_n50_b_train_002
TYPE: TSP
DIMENSION: 50
EDGE_WEIGHT_TYPE: EUC_2D
NODE_COORD_SECTION
1 743 2362
2 1622 8670
3 8480 5982
4 3048 1101
5 855 8598
6 9039 1796
7 9945 3097
8 1268 4297
9 9007 480
10 5231 3670
11 6845 3364
12 77 5005
13 6325 6894
14 1140 2287
15 595 6090
16 3201 7853
17 8166 8598
18 263 2096
19 3311 8314
20 3117 3744
21 8374 5600
22 235 2714
23 4903 2071
24 1455 1453
25 1217 7836
26 7795 6821
27 1375 14
28 2868 8998
29 1007 976
30 4208 9810
31 121 8931
32 5456 9626
33 2700 5325
34 946 4562
35 6887 2999
36 1134 1751
37 6930 2857
38 2948 6714
39 8220 3097
40 330 6523
41 3165 9427
42 9108 2693
43 3259 6859
44 309 1829
45 2144 5753
46 5643 6330
47 5045 2702
48 5103 9327
49 5581 9784
50 8600 6606
EOF
