NAME: tsp_uniform_n50_b_train_009
TYPE: TSP
DIMENSION: 50
EDGE_WEIGHT_TYPE: EUC_2D
NODE_COORD_SECTION
1 8116 1999
2 9063 4179
3 590 6567
4 7315 8228
5 755 2708
6 3125 606
7 4920 7878
8 9256 4906
9 6371 6614
10 5406 3204
11 3484 8016
12 2696 2247
13 4424 1902
14 4996 4309
15 6541 9331
16 6970 4325
17 8171 1461
18 7610 780
19 2893 454
20 3689 882
21 1731 6217
22 8120 8429
23 6958 2556
24 6837 7184
25 3623 8921
26 7730 2502
27 8120 7495
28 2981 8975
29 5108 3860
30 7092 1967
31 2826 6041
32 3313 2373
33 4550 2867
34 7546 862
35 6882 9794
36 1179 541
37 691 5873
38 8856 2664
39 1311 7869
40 3155 2259
41 12 6686
42 7214 6255
43 2101 596
44 8459 2741
45 554 9745
46 8912 6580
47 508 8823
48 3516 309
49 7331 5964
50 9385 5362
EOF
