NAME: cvrp_n100_uniform_smoke_001-k20
TYPE: CVRP
DIMENSION: 100
EDGE_WEIGHT_TYPE: EUC_2D
CAPACITY: 43
NODE_COORD_SECTION
1 8913 5342
2 6594 8926
3 8483 9584
4 7928 2439
5 616 5039
6 1483 7462
7 6216 6209
8 9058 6333
9 8392 4565
10 7917 6505
11 7229 8139
12 9844 8916
13 6231 9809
14 6945 6613
15 8113 3822
16 7126 644
17 6147 3755
18 260 6219
19 1081 8382
20 4224 4205
21 2063 8772
22 2573 9270
23 7838 9373
24 1105 7857
25 8985 7227
26 5839 8662
27 8820 76
28 3108 3234
29 2109 2575
30 6930 2982
31 6541 2191
32 2075 9242
33 3365 8235
34 1594 7831
35 3545 6817
36 405 3283
37 2873 9167
38 855 1103
39 1616 9149
40 1174 6781
41 256 6137
42 9172 4968
43 1501 5918
44 9375 9916
45 1011 5310
46 9818 2602
47 3698 2140
48 1197 3761
49 6414 3269
50 9988 14
51 5124 5899
52 7488 7518
53 6943 9414
54 5446 2663
55 5063 9741
56 3613 6384
57 274 2867
58 702 1035
59 9572 4781
60 9143 7517
61 8416 5675
62 4743 4561
63 4208 3350
64 8653 1725
65 842 6673
66 505 2521
67 3994 9552
68 7858 2216
69 3724 5063
70 625 6626
71 423 7497
72 9083 9832
73 5307 4501
74 6457 7083
75 1918 7792
76 4671 7774
77 6096 7196
78 5529 3314
79 8128 2222
80 938 220
81 8414 480
82 6893 9355
83 3912 4872
84 2891 4679
85 4067 3052
86 4242 4637
87 2560 1483
88 846 1424
89 9453 8140
90 425 1022
91 1169 3005
92 477 7112
93 546 8432
94 109 9944
95 4604 232
96 7779 8748
97 8941 5487
98 6867 3834
99 4868 8219
100 7492 9274
DEMAND_SECTION
1 0
2 1
3 1
4 1
5 10
6 1
7 2
8 9
9 8
10 9
11 8
12 4
13 7
14 3
15 10
16 2
17 9
18 8
19 5
20 6
21 9
22 6
23 7
24 8
25 4
26 4
27 2
28 8
29 8
30 1
31 9
32 4
33 10
34 6
35 4
36 9
37 4
38 2
39 8
40 3
41 6
42 10
43 2
44 8
45 8
46 3
47 7
48 4
49 4
50 10
51 10
52 3
53 10
54 1
55 10
56 4
57 6
58 3
59 3
60 2
61 9
62 8
63 6
64 9
65 4
66 7
67 5
68 7
69 10
70 2
71 9
72 9
73 1
74 9
75 9
76 9
77 9
78 3
79 3
80 7
81 4
82 2
83 4
84 4
85 1
86 7
87 4
88 8
89 7
90 1
91 10
92 7
93 10
94 6
95 3
96 1
97 7
98 9
99 4
100 7
DEPOT_SECTION
1
-1
EOF
