NAME: cvrp_n100_uniform_smoke_000-k20
TYPE: CVRP
DIMENSION: 100
EDGE_WEIGHT_TYPE: EUC_2D
CAPACITY: 40
NODE_COORD_SECTION
1 7853 2809
2 1791 9427
3 7960 6218
4 237 61
5 5333 899
6 7501 7244
7 8414 5106
8 6336 6534
9 8411 6321
10 2380 5559
11 9021 6973
12 5456 9422
13 808 2722
14 418 7058
15 1851 3509
16 8388 3960
17 5510 6979
18 6816 4711
19 6603 3911
20 225 3508
21 8520 1534
22 48 3457
23 973 9311
24 1112 4221
25 2415 3486
26 309 764
27 5285 3455
28 5693 7664
29 2622 7357
30 8684 4552
31 6860 4185
32 859 9764
33 6937 6028
34 2479 3909
35 7468 1505
36 4632 4222
37 6911 7769
38 9931 7131
39 1741 9459
40 6265 6754
41 9725 2788
42 5465 553
43 2750 4408
44 4288 290
45 1525 8925
46 2837 5706
47 9928 5584
48 8658 5913
49 8260 1913
50 3527 4651
51 5222 5325
52 1543 9646
53 1530 7803
54 3675 147
55 7161 4778
56 4628 3374
57 1010 4072
58 6608 9623
59 538 8308
60 3187 566
61 5789 7225
62 9697 1073
63 6505 8713
64 5373 3750
65 5980 5008
66 7845 5540
67 6164 3672
68 67 5198
69 2347 2178
70 6295 2331
71 9147 5791
72 5821 3159
73 598 1871
74 6190 5850
75 3383 8997
76 3603 2465
77 8415 719
78 118 1206
79 1005 3369
80 5187 6734
81 379 292
82 9599 2784
83 8382 9172
84 281 6755
85 2103 9431
86 2524 1922
87 7844 7547
88 8320 2216
89 6727 5986
90 9638 6563
91 8163 4208
92 1945 8934
93 5903 8225
94 212 2946
95 1475 7953
96 2854 9193
97 6539 723
98 8202 5349
99 6857 3897
100 8325 6667
DEMAND_SECTION
1 0
2 9
3 4
4 7
5 1
6 10
7 7
8 8
9 6
10 6
11 1
12 10
13 3
14 6
15 6
16 6
17 1
18 1
19 1
20 3
21 6
22 5
23 1
24 9
25 1
26 5
27 6
28 5
29 10
30 5
31 7
32 2
33 10
34 1
35 10
36 10
37 4
38 5
39 7
40 1
41 5
42 7
43 4
44 2
45 1
46 4
47 7
48 6
49 7
50 9
51 1
52 10
53 6
54 2
55 6
56 4
57 5
58 10
59 5
60 7
61 10
62 9
63 1
64 9
65 1
66 10
67 9
68 9
69 6
70 9
71 1
72 5
73 1
74 2
75 9
76 3
77 2
78 10
79 10
80 10
81 5
82 1
83 3
84 9
85 4
86 8
87 1
88 8
89 5
90 5
91 3
92 3
93 9
94 2
95 4
96 7
97 10
98 10
99 8
100 1
DEPOT_SECTION
1
-1
EOF
